#INFO: **** input file is /scicore/home/meuwly/boitti0000/mmml/.venv/bin/mmml ****
#!/scicore/home/meuwly/boitti0000/mmml/.venv/bin/python3
# -*- coding: utf-8 -*-
import sys
from mmml.cli.__main__ import main
if __name__ == "__main__":
    if sys.argv[0].endswith("-script.pyw"):
        sys.argv[0] = sys.argv[0][:-11]
    elif sys.argv[0].endswith(".exe"):
        sys.argv[0] = sys.argv[0][:-4]
    sys.exit(main())
#INFO: ******************** input file end ********************


System: uname_result(system='Linux', node='sga02', release='5.15.0-126-generic', version='#136-Ubuntu SMP Wed Nov 6 10:38:22 UTC 2024', machine='x86_64')  Threads 32
Python 3.13.2 (main, Mar 17 2025, 21:02:54) [Clang 20.1.0 ]
numpy 2.4.4  scipy 1.17.1  h5py 3.16.0
Date: Tue May 26 10:04:39 2026
PySCF version 2.12.1
PySCF path  /scicore/home/meuwly/boitti0000/mmml/.venv/lib/python3.13/site-packages/pyscf/__init__.py
CUDA Environment
    CuPy 14.0.1
    CUDA Path /scicore/home/meuwly/boitti0000/mmml/.venv/lib/python3.13/site-packages/nvidia/cu13
    CUDA Build Version 13000
    CUDA Driver Version 13000
    CUDA Runtime Version 13000
CUDA toolkit
    cuSolver (12, 2, 0)
    cuBLAS 130400
    cuTENSOR None
Device info
    Device name b'NVIDIA A100-SXM4-40GB'
    Device global memory 39.49 GB
    CuPy memory fraction 0.9
    Num. Devices 1
GPU4PySCF 1.7.0
GPU4PySCF path  /scicore/home/meuwly/boitti0000/mmml/.venv/lib/python3.13/site-packages/gpu4pyscf

[CONFIG] conf_file None
[INPUT] verbose = 6
[INPUT] max_memory = 4000 
[INPUT] num. atoms = 10
[INPUT] num. electrons = 32
[INPUT] charge = 0
[INPUT] spin (= nelec alpha-beta = 2S) = 0
[INPUT] symmetry False subgroup None
[INPUT] Mole.unit = Ang
[INPUT] Symbol           X                Y                Z      unit          X                Y                Z       unit  Magmom
[INPUT]  1 O     -0.779100000000  -0.755700000000   0.108800000000 AA   -1.472285623649  -1.428066032334   0.205602202353 Bohr   0.0
[INPUT]  2 C      0.213400000000   0.062800000000  -0.494700000000 AA    0.403267554982   0.118674800623  -0.934847513822 Bohr   0.0
[INPUT]  3 C     -0.976900000000   0.663200000000   0.160800000000 AA   -1.846073451088   1.253266365812   0.303867960830 Bohr   0.0
[INPUT]  4 C      1.542600000000   0.029600000000   0.225200000000 AA    2.915091519754   0.055935893287   0.425566323252 Bohr   0.0
[INPUT]  5 H      0.294600000000   0.073600000000  -1.571600000000 AA    0.556713316297   0.139083842768  -2.969893577366 Bohr   0.0
[INPUT]  6 H     -1.751800000000   1.081600000000  -0.468500000000 AA   -3.310422225013   2.043927776330  -0.885336689359 Bohr   0.0
[INPUT]  7 H     -0.859900000000   1.150700000000   1.119800000000 AA   -1.624975494513   2.174507851537   2.116115314288 Bohr   0.0
[INPUT]  8 H      2.113300000000   0.932400000000  -0.011800000000 AA    3.993558219043   1.761980638544  -0.022298768270 Bohr   0.0
[INPUT]  9 H      2.119100000000  -0.840900000000  -0.101900000000 AA    4.004518630566  -1.589070698147  -0.192563092093 Bohr   0.0
[INPUT] 10 H      1.416700000000  -0.026300000000   1.311300000000 AA    2.677175000671  -0.049699797076   2.477997867142 Bohr   0.0
[INPUT] ---------------- BASIS SET ---------------- 
[INPUT] l, kappa, [nprim/nctr], expnt,             c_1 c_2 ...
[INPUT] C
[INPUT] 0    0    [5    /1   ]  1238.4016938      0.0054568832082
                                186.29004992      0.040638409211
                                42.251176346      0.18025593888
                                11.676557932      0.46315121755
                                3.5930506482      0.44087173314
[INPUT] 0    0    [1    /1   ]  0.40245147363        1
[INPUT] 0    0    [1    /1   ]  0.13090182668        1
[INPUT] 1    0    [3    /1   ]  9.4680970621      0.038387871728
                                2.0103545142      0.21117025112
                                0.54771004707     0.51328172114
[INPUT] 1    0    [1    /1   ]  0.15268613795        1
[INPUT] 2    0    [1    /1   ]  0.8                  1
[INPUT] H
[INPUT] 0    0    [3    /1   ]  13.010701         0.019682158
                                1.9622572         0.13796524
                                0.44453796        0.47831935
[INPUT] 0    0    [1    /1   ]  0.12194962           1
[INPUT] 1    0    [1    /1   ]  0.8                  1
[INPUT] O
[INPUT] 0    0    [5    /1   ]  2266.1767785      -0.0053431809926
                                340.87010191      -0.03989003923
                                77.363135167      -0.17853911985
                                21.47964494       -0.46427684959
                                6.6589433124      -0.44309745172
[INPUT] 0    0    [1    /1   ]  0.80975975668        1
[INPUT] 0    0    [1    /1   ]  0.25530772234        1
[INPUT] 1    0    [3    /1   ]  17.721504317      0.043394573193
                                3.863550544       0.23094120765
                                1.0480920883      0.51375311064
[INPUT] 1    0    [1    /1   ]  0.27641544411        1
[INPUT] 2    0    [1    /1   ]  1.2                  1

nuclear repulsion = 124.791747076153
number of shells = 42
number of NR pGTOs = 138
number of NR cGTOs = 86
basis = def2-SVP
ecp = {}
CPU time:         8.80
Create scanner for <class 'gpu4pyscf.df.grad.rks.Gradients'>
Create scanner for <class 'gpu4pyscf.df.df_jk.DFRKS'>

Geometry optimization cycle 1
Cartesian coordinates (Angstrom)
 Atom        New coordinates             dX        dY        dZ
   O  -0.779100  -0.755700   0.108800    0.000000  0.000000  0.000000
   C   0.213400   0.062800  -0.494700    0.000000  0.000000  0.000000
   C  -0.976900   0.663200   0.160800    0.000000  0.000000  0.000000
   C   1.542600   0.029600   0.225200    0.000000 -0.000000  0.000000
   H   0.294600   0.073600  -1.571600    0.000000  0.000000  0.000000
   H  -1.751800   1.081600  -0.468500    0.000000  0.000000  0.000000
   H  -0.859900   1.150700   1.119800    0.000000  0.000000  0.000000
   H   2.113300   0.932400  -0.011800    0.000000  0.000000  0.000000
   H   2.119100  -0.840900  -0.101900    0.000000  0.000000  0.000000
   H   1.416700  -0.026300   1.311300   -0.000000  0.000000  0.000000

WARN: Mole.unit (Ang) is changed to Bohr

New geometry
   1 O     -0.779100000000  -0.755700000000   0.108800000000 AA   -1.472285623649  -1.428066032334   0.205602202353 Bohr
   2 C      0.213400000000   0.062800000000  -0.494700000000 AA    0.403267554982   0.118674800623  -0.934847513822 Bohr
   3 C     -0.976900000000   0.663200000000   0.160800000000 AA   -1.846073451088   1.253266365812   0.303867960830 Bohr
   4 C      1.542600000000   0.029600000000   0.225200000000 AA    2.915091519754   0.055935893287   0.425566323252 Bohr
   5 H      0.294600000000   0.073600000000  -1.571600000000 AA    0.556713316297   0.139083842768  -2.969893577366 Bohr
   6 H     -1.751800000000   1.081600000000  -0.468500000000 AA   -3.310422225013   2.043927776330  -0.885336689359 Bohr
   7 H     -0.859900000000   1.150700000000   1.119800000000 AA   -1.624975494513   2.174507851537   2.116115314288 Bohr
   8 H      2.113300000000   0.932400000000  -0.011800000000 AA    3.993558219043   1.761980638544  -0.022298768270 Bohr
   9 H      2.119100000000  -0.840900000000  -0.101900000000 AA    4.004518630566  -1.589070698147  -0.192563092093 Bohr
  10 H      1.416700000000  -0.026300000000   1.311300000000 AA    2.677175000671  -0.049699797076   2.477997867142 Bohr


******** <class 'pyscf.scf.hf.DFRKS_Scanner'> ********
method = DFRKS_Scanner
initial guess = minao
damping factor = None
level_shift factor = None
DIIS = <class 'gpu4pyscf.scf.diis.CDIIS'>
diis_start_cycle = 1
diis_space = 8
diis_damp = 0
SCF conv_tol = 1e-10
SCF conv_tol_grad = None
SCF max_cycles = 50
direct_scf = False
XC library gpu4pyscf.dft.libxc version 7.0.0 (CUDA)
    unable to decode the reference due to https://github.com/NVIDIA/cuda-python/issues/29
XC functionals = PBE0
radial grids: 
Treutler-Ahlrichs [JCP 102, 346 (1995); DOI:10.1063/1.469408] (M4) radial grids

becke partition: Becke, JCP 88, 2547 (1988); DOI:10.1063/1.454033
pruning grids: <function nwchem_prune at 0x14b55ceca7a0>
grids dens level: 3
symmetrized grids: False
atomic radii adjust function: <function treutler_atomic_radii_adjust at 0x14b55ceca840>
User specified grid scheme (99, 590)
small_rho_cutoff = 0
Set gradient conv threshold to 1e-05
    CPU time for generating initial guess                                6.14 sec, wall time      0.33 sec, GPU time    325.33 ms
Number of shells for each [l, nprim] group
    [0 5] : 4
    [0 3] : 6
    [0 1] : 14
    [1 3] : 4
    [1 1] : 10
    [2 1] : 4
sp_blocks = 21, ksh_blocks = 1, shm_size = 59512 B
    CPU time for processing contract_int3c2e_auxvec                      0.00 sec, wall time      0.00 sec, GPU time      4.63 ms
Number of shells for each [l, nprim] group
    [0 5] : 4
    [0 3] : 6
    [0 1] : 14
    [1 3] : 4
    [1 1] : 10
    [2 1] : 4
Number of shells for each [l, nprim] group
    [0 5] : 4
    [0 3] : 6
    [0 1] : 14
    [1 3] : 4
    [1 1] : 10
    [2 1] : 4
    CPU time for hcore                                                   0.32 sec, wall time      0.11 sec, GPU time    106.44 ms
atom O rad-grids = 99, ang-grids = [ 50  50  50  50  50  50  50  50  50  50  50  50  50  50  50  50  50  50
  50  50  50  50  50  50  50  50  50  50  50  50  86  86  86  86  86  86
  86  86  86  86  86  86  86 434 434 434 434 434 434 434 434 590 590 590
 590 590 590 590 590 590 590 590 590 590 590 590 590 590 590 590 590 590
 590 590 590 590 590 590 434 434 434 434 434 434 434 434 434 434 434 434
 434 434 434 434 434 434 434 434 434]
atom C rad-grids = 99, ang-grids = [ 50  50  50  50  50  50  50  50  50  50  50  50  50  50  50  50  50  50
  50  50  50  50  50  50  50  50  50  50  50  50  86  86  86  86  86  86
  86  86  86  86  86  86 434 434 434 434 434 434 434 434 434 590 590 590
 590 590 590 590 590 590 590 590 590 590 590 590 590 590 590 590 590 590
 590 590 590 590 590 434 434 434 434 434 434 434 434 434 434 434 434 434
 434 434 434 434 434 434 434 434 434]
atom H rad-grids = 99, ang-grids = [ 50  50  50  50  50  50  50  50  50  50  50  50  50  50  50  50  50  50
  50  50  50  50  50  50  50  50  50  50  50  50  86  86  86  86  86  86
  86 434 434 434 434 434 434 434 434 434 434 590 590 590 590 590 590 590
 590 590 590 590 590 590 590 590 590 590 590 590 590 590 590 590 590 590
 590 590 434 434 434 434 434 434 434 434 434 434 434 434 434 434 434 434
 434 434 434 434 434 434 434 434 434]
    CPU time for generating atomic grids                                 0.01 sec, wall time      0.01 sec, GPU time      9.69 ms
Padding 164 grids
    CPU time for sorting grids                                           0.03 sec, wall time      0.03 sec, GPU time     28.99 ms
tot grids = 324608
    CPU time for setting up grids                                        0.04 sec, wall time      0.04 sec, GPU time     38.84 ms
Number of shells for each [l, nctr] group
    [0 1] : 14
    [0 3] : 6
    [0 5] : 4
    [1 1] : 10
    [1 3] : 4
    [2 1] : 4
324608 grids on Device 0
0 - 324608 grids are calculated on Device 0.
mem_info: unallocated=40016.69 MB, used=28.99 MB, free=20.19 MB, free_blocks=15
41981.713408 MB memory is available on Device 0, block_size None
    CPU time for eval rho on Device 0                                    0.06 sec, wall time      0.06 sec, GPU time     63.51 ms
    CPU time for eval vxc on Device 0                                    0.10 sec, wall time      0.10 sec, GPU time     98.77 ms
0 - 324608 grids are calculated on Device 0.
mem_info: unallocated=39964.69 MB, used=37.41 MB, free=52.25 MB, free_blocks=19
41960.798208 MB memory is available on Device 0, block_size None
    CPU time for eval integration on 0                                   0.03 sec, wall time      0.03 sec, GPU time     26.68 ms
    CPU time for nr_rks                                                  0.20 sec, wall time      0.20 sec, GPU time    196.79 ms
nelec by numeric integration = 31.969085772183625
    CPU time for vxc                                                     0.23 sec, wall time      0.24 sec, GPU time    235.80 ms
Build CDERI ...
Psi4 predefined JKFIT basis set def2-svp-jkfit for HF
Default auxbasis def2-svp-jkfit is applied universally
num shells = 136, num cGTOs = 410
    CPU time for 2c2e                                                    0.52 sec, wall time      0.03 sec, GPU time     30.50 ms
Number of shells for each [l, nctr] group
    [0 1] : 14
    [0 3] : 6
    [0 5] : 4
    [1 1] : 10
    [1 3] : 4
    [2 1] : 4
Number of shells for each [l, nctr] group
    [0 1] : 42
    [0 3] : 6
    [0 5] : 4
    [1 1] : 40
    [1 3] : 4
    [2 1] : 27
    [2 2] : 3
    [2 3] : 1
    [3 1] : 2
    [3 2] : 3
    [4 1] : 4
    CPU time for Initialize q_cond                                       0.35 sec, wall time      0.02 sec, GPU time     17.22 ms
    CPU time for Get AO pairing                                          0.00 sec, wall time      0.00 sec, GPU time      0.66 ms
    CPU time for AO indices                                              0.00 sec, wall time      0.00 sec, GPU time      0.21 ms
    CPU time for Aux AO indices                                          0.00 sec, wall time      0.00 sec, GPU time      0.37 ms
    CPU time for Get AO pairs                                            0.11 sec, wall time      0.00 sec, GPU time      0.90 ms
    CPU time for prepare intopt                                          0.95 sec, wall time      0.14 sec, GPU time    141.08 ms
size of aux basis 410
Saving CDERI on GPU
CDERI size 0.011 GB on Device 0
    CPU time for Initialize GPU cache on Device 0                        0.01 sec, wall time      0.00 sec, GPU time      1.28 ms
    CPU time for solve 5 / 21 on Device 0                                0.17 sec, wall time      0.07 sec, GPU time     65.97 ms
    CPU time for transfer data for 5 / 21 on Device 0                    0.00 sec, wall time      0.00 sec, GPU time      0.56 ms
    CPU time for solve 2 / 21 on Device 0                                0.00 sec, wall time      0.00 sec, GPU time      2.45 ms
    CPU time for transfer data for 2 / 21 on Device 0                    0.00 sec, wall time      0.00 sec, GPU time      0.08 ms
    CPU time for solve 4 / 21 on Device 0                                0.00 sec, wall time      0.00 sec, GPU time      2.39 ms
    CPU time for transfer data for 4 / 21 on Device 0                    0.00 sec, wall time      0.00 sec, GPU time      0.07 ms
    CPU time for solve 12 / 21 on Device 0                               0.00 sec, wall time      0.00 sec, GPU time      2.96 ms
    CPU time for transfer data for 12 / 21 on Device 0                   0.00 sec, wall time      0.00 sec, GPU time      0.08 ms
    CPU time for solve 3 / 21 on Device 0                                0.00 sec, wall time      0.00 sec, GPU time      2.12 ms
    CPU time for transfer data for 3 / 21 on Device 0                    0.00 sec, wall time      0.00 sec, GPU time      0.07 ms
    CPU time for solve 11 / 21 on Device 0                               0.00 sec, wall time      0.00 sec, GPU time      2.32 ms
    CPU time for transfer data for 11 / 21 on Device 0                   0.00 sec, wall time      0.00 sec, GPU time      0.08 ms
    CPU time for solve 14 / 21 on Device 0                               0.00 sec, wall time      0.00 sec, GPU time      3.47 ms
    CPU time for transfer data for 14 / 21 on Device 0                   0.00 sec, wall time      0.00 sec, GPU time      0.08 ms
    CPU time for solve 17 / 21 on Device 0                               0.00 sec, wall time      0.00 sec, GPU time      2.55 ms
    CPU time for transfer data for 17 / 21 on Device 0                   0.00 sec, wall time      0.00 sec, GPU time      0.07 ms
    CPU time for solve 1 / 21 on Device 0                                0.00 sec, wall time      0.00 sec, GPU time      2.06 ms
    CPU time for transfer data for 1 / 21 on Device 0                    0.00 sec, wall time      0.00 sec, GPU time      0.07 ms
    CPU time for solve 0 / 21 on Device 0                                0.00 sec, wall time      0.00 sec, GPU time      2.11 ms
    CPU time for transfer data for 0 / 21 on Device 0                    0.00 sec, wall time      0.00 sec, GPU time      0.07 ms
    CPU time for solve 16 / 21 on Device 0                               0.00 sec, wall time      0.00 sec, GPU time      2.16 ms
    CPU time for transfer data for 16 / 21 on Device 0                   0.00 sec, wall time      0.00 sec, GPU time      0.07 ms
    CPU time for solve 8 / 21 on Device 0                                0.00 sec, wall time      0.00 sec, GPU time      2.15 ms
    CPU time for transfer data for 8 / 21 on Device 0                    0.00 sec, wall time      0.00 sec, GPU time      0.08 ms
    CPU time for solve 10 / 21 on Device 0                               0.00 sec, wall time      0.00 sec, GPU time      2.15 ms
    CPU time for transfer data for 10 / 21 on Device 0                   0.00 sec, wall time      0.00 sec, GPU time      0.07 ms
    CPU time for solve 7 / 21 on Device 0                                0.00 sec, wall time      0.00 sec, GPU time      2.09 ms
    CPU time for transfer data for 7 / 21 on Device 0                    0.00 sec, wall time      0.00 sec, GPU time      0.07 ms
    CPU time for solve 20 / 21 on Device 0                               0.00 sec, wall time      0.00 sec, GPU time      2.96 ms
    CPU time for transfer data for 20 / 21 on Device 0                   0.00 sec, wall time      0.00 sec, GPU time      0.07 ms
    CPU time for solve 19 / 21 on Device 0                               0.00 sec, wall time      0.00 sec, GPU time      2.43 ms
    CPU time for transfer data for 19 / 21 on Device 0                   0.00 sec, wall time      0.00 sec, GPU time      0.08 ms
    CPU time for solve 15 / 21 on Device 0                               0.00 sec, wall time      0.00 sec, GPU time      2.18 ms
    CPU time for transfer data for 15 / 21 on Device 0                   0.00 sec, wall time      0.00 sec, GPU time      0.08 ms
    CPU time for solve 13 / 21 on Device 0                               0.00 sec, wall time      0.00 sec, GPU time      2.49 ms
    CPU time for transfer data for 13 / 21 on Device 0                   0.00 sec, wall time      0.00 sec, GPU time      0.07 ms
    CPU time for solve 6 / 21 on Device 0                                0.00 sec, wall time      0.00 sec, GPU time      2.07 ms
    CPU time for transfer data for 6 / 21 on Device 0                    0.00 sec, wall time      0.00 sec, GPU time      0.07 ms
    CPU time for solve 9 / 21 on Device 0                                0.00 sec, wall time      0.00 sec, GPU time      2.09 ms
    CPU time for transfer data for 9 / 21 on Device 0                    0.00 sec, wall time      0.00 sec, GPU time      0.07 ms
    CPU time for solve 18 / 21 on Device 0                               0.00 sec, wall time      0.00 sec, GPU time      2.13 ms
    CPU time for transfer data for 18 / 21 on Device 0                   0.00 sec, wall time      0.00 sec, GPU time      0.07 ms
    CPU time for cholesky_eri                                            1.42 sec, wall time      0.27 sec, GPU time    267.51 ms
    CPU time for init jk                                                 1.94 sec, wall time      0.30 sec, GPU time    298.19 ms
38.135 GB memory available on Device 0, block size = 256
    CPU time for vj and vk on Device 0                                   0.01 sec, wall time      0.01 sec, GPU time      7.87 ms
    CPU time for vj and vk                                               0.01 sec, wall time      0.01 sec, GPU time     10.48 ms
    CPU time for veff                                                    1.96 sec, wall time      0.31 sec, GPU time    312.18 ms
E1 = -505.3258782316151  Ecoul = 214.12232255857916  Exc = -26.722638224084353
init E= -193.134446820967
cond(S) = 2931.276980062463
    CPU time for SCF initialization                                      8.69 sec, wall time      1.02 sec, GPU time   1021.85 ms
    CPU time for DIIS                                                    0.00 sec, wall time      0.00 sec, GPU time      0.74 ms
    CPU time for eig                                                     0.00 sec, wall time      0.00 sec, GPU time      2.73 ms
  HOMO = -0.345235846657246  LUMO = 0.0176056767621146  gap = 9.87342 eV
324608 grids on Device 0
0 - 324608 grids are calculated on Device 0.
mem_info: unallocated=39884.69 MB, used=43.45 MB, free=111.99 MB, free_blocks=25
41939.556352 MB memory is available on Device 0, block_size None
    CPU time for eval rho on Device 0                                    0.05 sec, wall time      0.05 sec, GPU time     48.77 ms
    CPU time for eval vxc on Device 0                                    0.00 sec, wall time      0.00 sec, GPU time      1.01 ms
0 - 324608 grids are calculated on Device 0.
mem_info: unallocated=39876.69 MB, used=51.85 MB, free=103.59 MB, free_blocks=25
41922.358272 MB memory is available on Device 0, block_size None
    CPU time for eval integration on 0                                   0.02 sec, wall time      0.02 sec, GPU time     18.63 ms
    CPU time for nr_rks                                                  0.07 sec, wall time      0.07 sec, GPU time     70.85 ms
nelec by numeric integration = 32.0000005355708
    CPU time for vxc                                                     0.07 sec, wall time      0.07 sec, GPU time     71.01 ms
38.134 GB memory available on Device 0, block size = 256
    CPU time for vj and vk on Device 0                                   0.01 sec, wall time      0.01 sec, GPU time      6.77 ms
    CPU time for vj and vk                                               0.01 sec, wall time      0.01 sec, GPU time     10.43 ms
    CPU time for veff                                                    0.01 sec, wall time      0.01 sec, GPU time     11.78 ms
    CPU time for veff                                                    0.09 sec, wall time      0.09 sec, GPU time     86.41 ms
E1 = -509.7755013690572  Ecoul = 219.397827381653  Exc = -27.08749889639145
    CPU time for cycle=1                                                 0.09 sec, wall time      0.09 sec, GPU time     93.92 ms
cycle= 1 E= -192.673425807642  delta_E= 0.461  |g|= 0.569  |ddm|= 2.98
diis-c [-0.3233899  1.       ]
    CPU time for DIIS                                                    0.00 sec, wall time      0.00 sec, GPU time      3.67 ms
    CPU time for eig                                                     0.00 sec, wall time      0.00 sec, GPU time      3.28 ms
  HOMO = -0.149008288320393  LUMO = 0.0831502432988065  gap = 6.31736 eV
324608 grids on Device 0
0 - 324608 grids are calculated on Device 0.
mem_info: unallocated=39884.69 MB, used=43.51 MB, free=111.93 MB, free_blocks=25
41939.494912 MB memory is available on Device 0, block_size None
    CPU time for eval rho on Device 0                                    0.05 sec, wall time      0.05 sec, GPU time     49.04 ms
    CPU time for eval vxc on Device 0                                    0.00 sec, wall time      0.00 sec, GPU time      0.94 ms
0 - 324608 grids are calculated on Device 0.
mem_info: unallocated=39876.69 MB, used=51.91 MB, free=103.53 MB, free_blocks=25
41922.296832 MB memory is available on Device 0, block_size None
    CPU time for eval integration on 0                                   0.02 sec, wall time      0.02 sec, GPU time     18.14 ms
    CPU time for nr_rks                                                  0.07 sec, wall time      0.07 sec, GPU time     70.55 ms
nelec by numeric integration = 32.000000873512136
    CPU time for vxc                                                     0.07 sec, wall time      0.07 sec, GPU time     70.72 ms
38.134 GB memory available on Device 0, block size = 256
    CPU time for vj and vk on Device 0                                   0.01 sec, wall time      0.01 sec, GPU time      8.09 ms
    CPU time for vj and vk                                               0.01 sec, wall time      0.01 sec, GPU time     11.73 ms
    CPU time for veff                                                    0.01 sec, wall time      0.01 sec, GPU time     13.31 ms
    CPU time for veff                                                    0.09 sec, wall time      0.09 sec, GPU time     86.24 ms
E1 = -504.98120329731444  Ecoul = 214.16398486860695  Exc = -26.54404249988493
    CPU time for cycle=2                                                 0.10 sec, wall time      0.10 sec, GPU time     95.52 ms
cycle= 2 E= -192.569513852439  delta_E= 0.104  |g|= 0.93  |ddm|= 1.39
diis-c [-0.01648055  0.62445818  0.37554182]
    CPU time for DIIS                                                    0.00 sec, wall time      0.00 sec, GPU time      2.08 ms
    CPU time for eig                                                     0.00 sec, wall time      0.00 sec, GPU time      3.54 ms
  HOMO = -0.280389615520276  LUMO = 0.0843262754324769  gap = 9.92442 eV
324608 grids on Device 0
0 - 324608 grids are calculated on Device 0.
mem_info: unallocated=39884.69 MB, used=43.56 MB, free=111.87 MB, free_blocks=28
41939.434496 MB memory is available on Device 0, block_size None
    CPU time for eval rho on Device 0                                    0.04 sec, wall time      0.04 sec, GPU time     36.80 ms
    CPU time for eval vxc on Device 0                                    0.00 sec, wall time      0.00 sec, GPU time      0.96 ms
0 - 324608 grids are calculated on Device 0.
mem_info: unallocated=39876.69 MB, used=51.96 MB, free=103.47 MB, free_blocks=29
41922.236416 MB memory is available on Device 0, block_size None
    CPU time for eval integration on 0                                   0.02 sec, wall time      0.02 sec, GPU time     18.55 ms
    CPU time for nr_rks                                                  0.06 sec, wall time      0.06 sec, GPU time     58.68 ms
nelec by numeric integration = 32.00000066866248
    CPU time for vxc                                                     0.06 sec, wall time      0.06 sec, GPU time     58.86 ms
38.134 GB memory available on Device 0, block size = 256
    CPU time for vj and vk on Device 0                                   0.01 sec, wall time      0.01 sec, GPU time      7.52 ms
    CPU time for vj and vk                                               0.01 sec, wall time      0.01 sec, GPU time     11.01 ms
    CPU time for veff                                                    0.01 sec, wall time      0.01 sec, GPU time     12.42 ms
    CPU time for veff                                                    0.07 sec, wall time      0.07 sec, GPU time     73.51 ms
E1 = -507.58921717318105  Ecoul = 216.89545238788736  Exc = -26.836806939348577
    CPU time for cycle=3                                                 0.08 sec, wall time      0.08 sec, GPU time     81.38 ms
cycle= 3 E= -192.738824648489  delta_E= -0.169  |g|= 0.0785  |ddm|= 0.914
diis-c [-0.00178146  0.18950866  0.13650571  0.67398563]
    CPU time for DIIS                                                    0.00 sec, wall time      0.00 sec, GPU time      2.33 ms
    CPU time for eig                                                     0.00 sec, wall time      0.00 sec, GPU time      3.27 ms
  HOMO = -0.281757335433903  LUMO = 0.0798177580741277  gap = 9.83896 eV
324608 grids on Device 0
0 - 324608 grids are calculated on Device 0.
mem_info: unallocated=39884.69 MB, used=43.62 MB, free=111.82 MB, free_blocks=25
41939.37408 MB memory is available on Device 0, block_size None
    CPU time for eval rho on Device 0                                    0.05 sec, wall time      0.05 sec, GPU time     49.91 ms
    CPU time for eval vxc on Device 0                                    0.00 sec, wall time      0.00 sec, GPU time      1.06 ms
0 - 324608 grids are calculated on Device 0.
mem_info: unallocated=39876.69 MB, used=52.02 MB, free=103.42 MB, free_blocks=26
41922.176 MB memory is available on Device 0, block_size None
    CPU time for eval integration on 0                                   0.02 sec, wall time      0.02 sec, GPU time     18.94 ms
    CPU time for nr_rks                                                  0.07 sec, wall time      0.07 sec, GPU time     72.88 ms
nelec by numeric integration = 32.00000064743333
    CPU time for vxc                                                     0.07 sec, wall time      0.07 sec, GPU time     73.06 ms
38.134 GB memory available on Device 0, block size = 256
    CPU time for vj and vk on Device 0                                   0.01 sec, wall time      0.01 sec, GPU time      5.61 ms
    CPU time for vj and vk                                               0.01 sec, wall time      0.01 sec, GPU time      9.09 ms
    CPU time for veff                                                    0.01 sec, wall time      0.01 sec, GPU time     10.58 ms
    CPU time for veff                                                    0.09 sec, wall time      0.09 sec, GPU time     85.85 ms
E1 = -507.85874493537546  Ecoul = 217.18370123470993  Exc = -26.856745963882883
    CPU time for cycle=4                                                 0.09 sec, wall time      0.09 sec, GPU time     93.99 ms
cycle= 4 E= -192.740042588395  delta_E= -0.00122  |g|= 0.0295  |ddm|= 0.0852
diis-c [-8.74250157e-05  2.14211053e-02  2.04966061e-02  2.94553107e-01
  6.63529182e-01]
    CPU time for DIIS                                                    0.00 sec, wall time      0.00 sec, GPU time      2.99 ms
    CPU time for eig                                                     0.00 sec, wall time      0.00 sec, GPU time      3.91 ms
  HOMO = -0.28147955505238  LUMO = 0.0811159294447797  gap = 9.86673 eV
324608 grids on Device 0
0 - 324608 grids are calculated on Device 0.
mem_info: unallocated=39884.69 MB, used=43.68 MB, free=111.76 MB, free_blocks=27
41939.313664 MB memory is available on Device 0, block_size None
    CPU time for eval rho on Device 0                                    0.04 sec, wall time      0.04 sec, GPU time     39.15 ms
    CPU time for eval vxc on Device 0                                    0.00 sec, wall time      0.00 sec, GPU time      1.19 ms
0 - 324608 grids are calculated on Device 0.
mem_info: unallocated=39876.69 MB, used=52.08 MB, free=103.36 MB, free_blocks=27
41922.115584 MB memory is available on Device 0, block_size None
    CPU time for eval integration on 0                                   0.02 sec, wall time      0.02 sec, GPU time     18.97 ms
    CPU time for nr_rks                                                  0.06 sec, wall time      0.06 sec, GPU time     62.43 ms
nelec by numeric integration = 32.00000065411737
    CPU time for vxc                                                     0.06 sec, wall time      0.06 sec, GPU time     62.64 ms
38.134 GB memory available on Device 0, block size = 256
    CPU time for vj and vk on Device 0                                   0.01 sec, wall time      0.01 sec, GPU time      6.24 ms
    CPU time for vj and vk                                               0.01 sec, wall time      0.01 sec, GPU time      9.60 ms
    CPU time for veff                                                    0.01 sec, wall time      0.01 sec, GPU time     11.14 ms
    CPU time for veff                                                    0.08 sec, wall time      0.08 sec, GPU time     76.23 ms
E1 = -507.75377556351833  Ecoul = 217.07069683509962  Exc = -26.848924175892915
    CPU time for cycle=5                                                 0.09 sec, wall time      0.09 sec, GPU time     85.64 ms
cycle= 5 E= -192.740255828158  delta_E= -0.000213  |g|= 0.00418  |ddm|= 0.029
diis-c [-1.98561287e-06 -4.60047259e-03 -2.44331535e-03  4.48793700e-02
  1.81930081e-01  7.80234337e-01]
    CPU time for DIIS                                                    0.00 sec, wall time      0.00 sec, GPU time      3.36 ms
    CPU time for eig                                                     0.00 sec, wall time      0.00 sec, GPU time      3.35 ms
  HOMO = -0.281524831678844  LUMO = 0.0810764897318322  gap = 9.86688 eV
324608 grids on Device 0
0 - 324608 grids are calculated on Device 0.
mem_info: unallocated=39884.69 MB, used=43.74 MB, free=111.70 MB, free_blocks=26
41939.253248 MB memory is available on Device 0, block_size None
    CPU time for eval rho on Device 0                                    0.05 sec, wall time      0.05 sec, GPU time     50.56 ms
    CPU time for eval vxc on Device 0                                    0.00 sec, wall time      0.00 sec, GPU time      0.99 ms
0 - 324608 grids are calculated on Device 0.
mem_info: unallocated=39876.69 MB, used=52.14 MB, free=103.30 MB, free_blocks=26
41922.055168 MB memory is available on Device 0, block_size None
    CPU time for eval integration on 0                                   0.02 sec, wall time      0.02 sec, GPU time     21.97 ms
    CPU time for nr_rks                                                  0.07 sec, wall time      0.08 sec, GPU time     76.06 ms
nelec by numeric integration = 32.00000065386359
    CPU time for vxc                                                     0.07 sec, wall time      0.08 sec, GPU time     76.22 ms
38.134 GB memory available on Device 0, block size = 256
    CPU time for vj and vk on Device 0                                   0.00 sec, wall time      0.00 sec, GPU time      3.23 ms
    CPU time for vj and vk                                               0.01 sec, wall time      0.01 sec, GPU time      6.21 ms
    CPU time for veff                                                    0.01 sec, wall time      0.01 sec, GPU time      7.54 ms
    CPU time for veff                                                    0.08 sec, wall time      0.09 sec, GPU time     86.21 ms
E1 = -507.7583857589868  Ecoul = 217.0754834057156  Exc = -26.849104229741847
    CPU time for cycle=6                                                 0.09 sec, wall time      0.10 sec, GPU time     95.15 ms
cycle= 6 E= -192.74025950686  delta_E= -3.68e-06  |g|= 0.00127  |ddm|= 0.00487
diis-c [-1.87243721e-07 -2.85660481e-03 -1.74207413e-03  1.58615884e-02
  7.47832769e-02  3.73934108e-01  5.40019706e-01]
    CPU time for DIIS                                                    0.00 sec, wall time      0.00 sec, GPU time      3.26 ms
    CPU time for eig                                                     0.00 sec, wall time      0.00 sec, GPU time      3.21 ms
  HOMO = -0.281623659523835  LUMO = 0.0810722150751957  gap = 9.86946 eV
324608 grids on Device 0
0 - 324608 grids are calculated on Device 0.
mem_info: unallocated=39884.69 MB, used=43.79 MB, free=111.64 MB, free_blocks=31
41939.192832 MB memory is available on Device 0, block_size None
    CPU time for eval rho on Device 0                                    0.04 sec, wall time      0.04 sec, GPU time     36.82 ms
    CPU time for eval vxc on Device 0                                    0.00 sec, wall time      0.00 sec, GPU time      0.92 ms
0 - 324608 grids are calculated on Device 0.
mem_info: unallocated=39876.69 MB, used=52.19 MB, free=103.24 MB, free_blocks=30
41921.994752 MB memory is available on Device 0, block_size None
    CPU time for eval integration on 0                                   0.02 sec, wall time      0.02 sec, GPU time     18.29 ms
    CPU time for nr_rks                                                  0.06 sec, wall time      0.06 sec, GPU time     58.36 ms
nelec by numeric integration = 32.0000006538163
    CPU time for vxc                                                     0.06 sec, wall time      0.06 sec, GPU time     58.52 ms
38.134 GB memory available on Device 0, block size = 256
    CPU time for vj and vk on Device 0                                   0.01 sec, wall time      0.01 sec, GPU time      6.51 ms
    CPU time for vj and vk                                               0.01 sec, wall time      0.01 sec, GPU time      9.58 ms
    CPU time for veff                                                    0.01 sec, wall time      0.01 sec, GPU time     10.89 ms
    CPU time for veff                                                    0.07 sec, wall time      0.07 sec, GPU time     71.62 ms
E1 = -507.7604582031578  Ecoul = 217.07775397332355  Exc = -26.849302733609406
    CPU time for cycle=7                                                 0.08 sec, wall time      0.08 sec, GPU time     80.30 ms
cycle= 7 E= -192.74025988729  delta_E= -3.8e-07  |g|= 0.00024  |ddm|= 0.0014
diis-c [-1.27289612e-08 -5.02309092e-04 -3.62222197e-04  1.05297588e-03
  6.88911547e-03  4.57631867e-02  1.74805066e-01  7.72354187e-01]
    CPU time for DIIS                                                    0.00 sec, wall time      0.00 sec, GPU time      3.96 ms
    CPU time for eig                                                     0.00 sec, wall time      0.00 sec, GPU time      3.22 ms
  HOMO = -0.281634495967829  LUMO = 0.0810731031788174  gap = 9.86978 eV
324608 grids on Device 0
0 - 324608 grids are calculated on Device 0.
mem_info: unallocated=39884.69 MB, used=43.85 MB, free=111.59 MB, free_blocks=28
41939.132416 MB memory is available on Device 0, block_size None
    CPU time for eval rho on Device 0                                    0.04 sec, wall time      0.04 sec, GPU time     36.11 ms
    CPU time for eval vxc on Device 0                                    0.00 sec, wall time      0.00 sec, GPU time      0.95 ms
0 - 324608 grids are calculated on Device 0.
mem_info: unallocated=39876.69 MB, used=52.25 MB, free=103.18 MB, free_blocks=29
41921.934336 MB memory is available on Device 0, block_size None
    CPU time for eval integration on 0                                   0.02 sec, wall time      0.02 sec, GPU time     18.26 ms
    CPU time for nr_rks                                                  0.06 sec, wall time      0.06 sec, GPU time     57.60 ms
nelec by numeric integration = 32.00000065380033
    CPU time for vxc                                                     0.06 sec, wall time      0.06 sec, GPU time     57.75 ms
38.134 GB memory available on Device 0, block size = 256
    CPU time for vj and vk on Device 0                                   0.01 sec, wall time      0.01 sec, GPU time      6.20 ms
    CPU time for vj and vk                                               0.01 sec, wall time      0.01 sec, GPU time      9.25 ms
    CPU time for veff                                                    0.01 sec, wall time      0.01 sec, GPU time     10.57 ms
    CPU time for veff                                                    0.07 sec, wall time      0.07 sec, GPU time     70.50 ms
E1 = -507.7606999438231  Ecoul = 217.07800762603614  Exc = -26.849314659297306
    CPU time for cycle=8                                                 0.08 sec, wall time      0.08 sec, GPU time     80.01 ms
cycle= 8 E= -192.740259900931  delta_E= -1.36e-08  |g|= 7.33e-05  |ddm|= 0.000332
diis-c [-8.73909035e-10 -1.48506493e-05 -3.67310525e-05 -5.46227171e-04
 -2.01034205e-03 -5.92111298e-03  3.33561966e-02  3.01908760e-01
  6.73264307e-01]
    CPU time for DIIS                                                    0.00 sec, wall time      0.00 sec, GPU time      3.88 ms
    CPU time for eig                                                     0.00 sec, wall time      0.00 sec, GPU time      3.23 ms
  HOMO = -0.281627550144121  LUMO = 0.0810754119805018  gap = 9.86965 eV
324608 grids on Device 0
0 - 324608 grids are calculated on Device 0.
mem_info: unallocated=39884.69 MB, used=43.91 MB, free=111.53 MB, free_blocks=27
41939.072 MB memory is available on Device 0, block_size None
    CPU time for eval rho on Device 0                                    0.04 sec, wall time      0.04 sec, GPU time     36.52 ms
    CPU time for eval vxc on Device 0                                    0.00 sec, wall time      0.00 sec, GPU time      0.92 ms
0 - 324608 grids are calculated on Device 0.
mem_info: unallocated=39876.69 MB, used=52.31 MB, free=103.13 MB, free_blocks=27
41921.87392 MB memory is available on Device 0, block_size None
    CPU time for eval integration on 0                                   0.02 sec, wall time      0.02 sec, GPU time     18.57 ms
    CPU time for nr_rks                                                  0.06 sec, wall time      0.06 sec, GPU time     58.31 ms
nelec by numeric integration = 32.000000653820656
    CPU time for vxc                                                     0.06 sec, wall time      0.06 sec, GPU time     58.46 ms
38.134 GB memory available on Device 0, block size = 256
    CPU time for vj and vk on Device 0                                   0.00 sec, wall time      0.00 sec, GPU time      3.09 ms
    CPU time for vj and vk                                               0.01 sec, wall time      0.01 sec, GPU time      5.88 ms
    CPU time for veff                                                    0.01 sec, wall time      0.01 sec, GPU time      7.17 ms
    CPU time for veff                                                    0.07 sec, wall time      0.07 sec, GPU time     67.79 ms
E1 = -507.7603797439642  Ecoul = 217.07766644882616  Exc = -26.84929368321857
    CPU time for cycle=9                                                 0.08 sec, wall time      0.08 sec, GPU time     77.11 ms
cycle= 9 E= -192.740259902203  delta_E= -1.27e-09  |g|= 2.04e-05  |ddm|= 9.87e-05
diis-c [-5.00315783e-11  6.44715538e-01 -7.94607971e-06 -2.21422663e-04
 -9.19868311e-04 -3.87366705e-03  5.05419468e-03  7.81472374e-02
  2.77105934e-01]
    CPU time for DIIS                                                    0.00 sec, wall time      0.00 sec, GPU time      3.91 ms
    CPU time for eig                                                     0.00 sec, wall time      0.00 sec, GPU time      3.21 ms
  HOMO = -0.281630680727839  LUMO = 0.0810750177023308  gap = 9.86972 eV
324608 grids on Device 0
0 - 324608 grids are calculated on Device 0.
mem_info: unallocated=39884.69 MB, used=43.91 MB, free=111.53 MB, free_blocks=26
41939.072 MB memory is available on Device 0, block_size None
    CPU time for eval rho on Device 0                                    0.04 sec, wall time      0.04 sec, GPU time     35.99 ms
    CPU time for eval vxc on Device 0                                    0.00 sec, wall time      0.00 sec, GPU time      0.92 ms
0 - 324608 grids are calculated on Device 0.
mem_info: unallocated=39876.69 MB, used=52.31 MB, free=103.13 MB, free_blocks=26
41921.87392 MB memory is available on Device 0, block_size None
    CPU time for eval integration on 0                                   0.02 sec, wall time      0.02 sec, GPU time     18.21 ms
    CPU time for nr_rks                                                  0.06 sec, wall time      0.06 sec, GPU time     57.41 ms
nelec by numeric integration = 32.00000065381741
    CPU time for vxc                                                     0.06 sec, wall time      0.06 sec, GPU time     57.56 ms
38.134 GB memory available on Device 0, block size = 256
    CPU time for vj and vk on Device 0                                   0.00 sec, wall time      0.00 sec, GPU time      3.10 ms
    CPU time for vj and vk                                               0.01 sec, wall time      0.01 sec, GPU time      5.90 ms
    CPU time for veff                                                    0.01 sec, wall time      0.01 sec, GPU time      7.19 ms
    CPU time for veff                                                    0.07 sec, wall time      0.07 sec, GPU time     66.91 ms
E1 = -507.7604844505973  Ecoul = 217.0777779740452  Exc = -26.849300501907084
    CPU time for cycle=10                                                0.08 sec, wall time      0.08 sec, GPU time     76.25 ms
cycle= 10 E= -192.740259902306  delta_E= -1.03e-10  |g|= 3.02e-06  |ddm|= 2.65e-05
diis-c [-1.43791183e-12  1.36737835e-01  8.61015628e-01 -1.26102680e-05
 -5.86758753e-05 -3.50173155e-04 -7.02925865e-04 -3.90957407e-03
  7.28049609e-03]
    CPU time for DIIS                                                    0.00 sec, wall time      0.00 sec, GPU time      3.89 ms
    CPU time for eig                                                     0.00 sec, wall time      0.00 sec, GPU time      3.22 ms
  HOMO = -0.28163028283389  LUMO = 0.0810750522270112  gap = 9.86971 eV
324608 grids on Device 0
0 - 324608 grids are calculated on Device 0.
mem_info: unallocated=39884.69 MB, used=43.91 MB, free=111.53 MB, free_blocks=30
41939.072 MB memory is available on Device 0, block_size None
    CPU time for eval rho on Device 0                                    0.04 sec, wall time      0.04 sec, GPU time     37.31 ms
    CPU time for eval vxc on Device 0                                    0.00 sec, wall time      0.00 sec, GPU time      0.92 ms
0 - 324608 grids are calculated on Device 0.
mem_info: unallocated=39876.69 MB, used=52.31 MB, free=103.13 MB, free_blocks=30
41921.87392 MB memory is available on Device 0, block_size None
    CPU time for eval integration on 0                                   0.02 sec, wall time      0.02 sec, GPU time     18.11 ms
    CPU time for nr_rks                                                  0.06 sec, wall time      0.06 sec, GPU time     58.63 ms
nelec by numeric integration = 32.00000065381812
    CPU time for vxc                                                     0.06 sec, wall time      0.06 sec, GPU time     58.78 ms
38.134 GB memory available on Device 0, block size = 256
    CPU time for vj and vk on Device 0                                   0.01 sec, wall time      0.01 sec, GPU time      6.41 ms
    CPU time for vj and vk                                               0.01 sec, wall time      0.01 sec, GPU time      9.43 ms
    CPU time for veff                                                    0.01 sec, wall time      0.01 sec, GPU time     10.75 ms
    CPU time for veff                                                    0.07 sec, wall time      0.07 sec, GPU time     71.66 ms
E1 = -507.76047172537324  Ecoul = 217.0777644112589  Exc = -26.84929966434748
    CPU time for cycle=11                                                0.08 sec, wall time      0.08 sec, GPU time     81.00 ms
cycle= 11 E= -192.740259902308  delta_E= -2.61e-12  |g|= 5.29e-07  |ddm|= 4.32e-06
    CPU time for SCF                                                     9.63 sec, wall time      1.97 sec, GPU time   1966.21 ms
converged SCF energy = -192.740259902308


******** <class 'gpu4pyscf.grad.rhf.Gradients_Scanner'> for <class 'pyscf.scf.hf.DFRKS_Scanner'> ********
unit = Eh/Bohr
max_memory 4000 MB (current use 1080 MB)
Number of shells for each [l, nctr] group
    [0 1] : 14
    [0 3] : 6
    [0 5] : 4
    [1 1] : 10
    [1 3] : 4
    [2 1] : 4
    CPU time for Initialize q_cond                                       0.50 sec, wall time      0.02 sec, GPU time     16.00 ms
    CPU time for Get AO pairing                                          0.00 sec, wall time      0.00 sec, GPU time      0.98 ms
    CPU time for AO indices                                              0.11 sec, wall time      0.00 sec, GPU time      0.27 ms
    CPU time for Initialize GPU cache                                    0.00 sec, wall time      0.00 sec, GPU time      0.60 ms
    CPU time for gradients of h1e                                        2.44 sec, wall time      0.09 sec, GPU time     86.88 ms
324608 grids on Device 0
0 - 324608 grids are calculated on Device 0.
mem_info: unallocated=39884.69 MB, used=23.91 MB, free=131.53 MB, free_blocks=30
41960.046592 MB memory is available on Device 0, block_size None
    CPU time for gradient of vxc                                         0.24 sec, wall time      0.23 sec, GPU time    234.28 ms
    CPU time for grad vxc                                                0.35 sec, wall time      0.24 sec, GPU time    237.47 ms
    CPU time for vxc total                                               0.36 sec, wall time      0.24 sec, GPU time    237.90 ms
Number of shells for each [l, nprim] group
    [0 5] : 4
    [0 3] : 6
    [0 1] : 14
    [1 3] : 4
    [1 1] : 10
    [2 1] : 4
Number of shells for each [l, nprim] group
    [0 5] : 4
    [0 3] : 6
    [0 1] : 42
    [1 3] : 4
    [1 1] : 40
    [2 3] : 1
    [2 2] : 3
    [2 1] : 27
    [3 2] : 3
    [3 1] : 2
    [4 1] : 4
dm_factor shape (90, 16)
sp_batches = 1, ksh_batches = 11
41.793 GB free memory. nao_pair=4195 naux=480 batch_size=480 blksize=480
    CPU time for contract dm                                             0.04 sec, wall time      0.04 sec, GPU time     42.12 ms
int2c2e_kernel, nimgs = 1
    CPU time for contract int3c2e_ejk_ip1                                0.05 sec, wall time      0.05 sec, GPU time     60.69 ms
int2c2e_kernel, nimgs = 1
    CPU time for contract int2c2e_ip1                                    0.04 sec, wall time      0.04 sec, GPU time     21.91 ms
    CPU time for gradients of veff                                       0.51 sec, wall time      0.39 sec, GPU time    394.70 ms
Computing Gradients of NR-HF Coulomb repulsion
    CPU time for gradients of 2e part                                    0.51 sec, wall time      0.39 sec, GPU time    394.84 ms
    CPU time for gradients of electronic part                            2.95 sec, wall time      0.48 sec, GPU time    482.96 ms
    CPU time for SCF gradients                                           2.95 sec, wall time      0.48 sec, GPU time    483.46 ms
--------------- DFRKS_Scanner gradients ---------------
         x                y                z
0 O     0.0052671887    -0.0167209684     0.0093309412
1 C     0.0021308848    -0.0031131207    -0.0398296281
2 C    -0.0226050880     0.0203002319     0.0146557852
3 C     0.0063108046    -0.0037306008     0.0080972273
4 H     0.0055004158     0.0038605204     0.0142892267
5 H     0.0102623926    -0.0000229464     0.0056018784
6 H    -0.0011458644    -0.0010654374    -0.0113587440
7 H    -0.0049901498    -0.0032164979     0.0010275167
8 H    -0.0034112497     0.0033423337     0.0004610845
9 H     0.0026805989     0.0003691301    -0.0022761065
----------------------------------------------
cycle 1: E = -192.740259902  dE = -192.74  norm(grad) = 0.0619803

Geometry optimization cycle 2
Cartesian coordinates (Angstrom)
 Atom        New coordinates             dX        dY        dZ
   O  -0.796410  -0.730720   0.080409   -0.017310  0.024980 -0.028391
   C   0.223369   0.075796  -0.476023    0.009969  0.012996  0.018677
   C  -0.966691   0.671604   0.139678    0.010209  0.008404 -0.021122
   C   1.555692   0.034499   0.222872    0.013092  0.004899 -0.002328
   H   0.287996   0.061287  -1.574342   -0.006604 -0.012313 -0.002742
   H  -1.801418   1.069658  -0.452187   -0.049618 -0.011942  0.016313
   H  -0.867145   1.128669   1.133226   -0.007245 -0.022031  0.013426
   H   2.159331   0.924617  -0.019551    0.046031 -0.007783 -0.007751
   H   2.125567  -0.855067  -0.087894    0.006467 -0.014167  0.014006
   H   1.411715  -0.009622   1.311298   -0.004985  0.016678 -0.000002
New geometry
   1 O     -0.796409617780  -0.730720482700   0.080409349382 AA   -1.504996060574  -1.380861585914   0.151951648187 Bohr
   2 C      0.223369148017   0.075796474661  -0.476023487496 AA    0.422106514430   0.143234578316  -0.899554020228 Bohr
   3 C     -0.966690867914   0.671603832524   0.139677794255 AA   -1.826780987475   1.269147307679   0.263952776825 Bohr
   4 C      1.555692007199   0.034498913003   0.222872428316 AA    2.939831827780   0.065193497170   0.421167850235 Bohr
   5 H      0.287996366878   0.061286526371  -1.574342258484 AA    0.544234258269   0.115814749966  -2.975075694864 Bohr
   6 H     -1.801417650546   1.069658109481  -0.452186705114 AA   -3.404185995490   2.021360873839  -0.854509029835 Bohr
   7 H     -0.867144605968   1.128668716456   1.133225800957 AA   -1.638665815672   2.132874759465   2.141486401100 Bohr
   8 H      2.159331048821   0.924616656961  -0.019550842654 AA    4.080544294542   1.747272251868  -0.036945738120 Bohr
   9 H      2.125566679755  -0.855066644366  -0.087893576607 AA    4.016738884237  -1.615841776103  -0.166094787895 Bohr
  10 H      1.411714517003  -0.009621985955   1.311298135456 AA    2.667753803209  -0.018182918230   2.477994343664 Bohr


******** <class 'pyscf.scf.hf.DFRKS_Scanner'> ********
method = DFRKS_Scanner
initial guess = minao
damping factor = None
level_shift factor = None
DIIS = <class 'gpu4pyscf.scf.diis.CDIIS'>
diis_start_cycle = 1
diis_space = 8
diis_damp = 0
SCF conv_tol = 1e-10
SCF conv_tol_grad = None
SCF max_cycles = 50
direct_scf = False
XC library gpu4pyscf.dft.libxc version 7.0.0 (CUDA)
    unable to decode the reference due to https://github.com/NVIDIA/cuda-python/issues/29
XC functionals = PBE0
radial grids: 
Treutler-Ahlrichs [JCP 102, 346 (1995); DOI:10.1063/1.469408] (M4) radial grids

becke partition: Becke, JCP 88, 2547 (1988); DOI:10.1063/1.454033
pruning grids: <function nwchem_prune at 0x14b55ceca7a0>
grids dens level: 3
symmetrized grids: False
atomic radii adjust function: <function treutler_atomic_radii_adjust at 0x14b55ceca840>
User specified grid scheme (99, 590)
small_rho_cutoff = 0
Set gradient conv threshold to 1e-05
Number of shells for each [l, nprim] group
    [0 5] : 4
    [0 3] : 6
    [0 1] : 14
    [1 3] : 4
    [1 1] : 10
    [2 1] : 4
sp_blocks = 21, ksh_blocks = 1, shm_size = 59512 B
    CPU time for processing contract_int3c2e_auxvec                      0.09 sec, wall time      0.00 sec, GPU time      2.39 ms
Number of shells for each [l, nprim] group
    [0 5] : 4
    [0 3] : 6
    [0 1] : 14
    [1 3] : 4
    [1 1] : 10
    [2 1] : 4
Number of shells for each [l, nprim] group
    [0 5] : 4
    [0 3] : 6
    [0 1] : 14
    [1 3] : 4
    [1 1] : 10
    [2 1] : 4
    CPU time for hcore                                                   0.92 sec, wall time      0.04 sec, GPU time     42.18 ms
atom O rad-grids = 99, ang-grids = [ 50  50  50  50  50  50  50  50  50  50  50  50  50  50  50  50  50  50
  50  50  50  50  50  50  50  50  50  50  50  50  86  86  86  86  86  86
  86  86  86  86  86  86  86 434 434 434 434 434 434 434 434 590 590 590
 590 590 590 590 590 590 590 590 590 590 590 590 590 590 590 590 590 590
 590 590 590 590 590 590 434 434 434 434 434 434 434 434 434 434 434 434
 434 434 434 434 434 434 434 434 434]
atom C rad-grids = 99, ang-grids = [ 50  50  50  50  50  50  50  50  50  50  50  50  50  50  50  50  50  50
  50  50  50  50  50  50  50  50  50  50  50  50  86  86  86  86  86  86
  86  86  86  86  86  86 434 434 434 434 434 434 434 434 434 590 590 590
 590 590 590 590 590 590 590 590 590 590 590 590 590 590 590 590 590 590
 590 590 590 590 590 434 434 434 434 434 434 434 434 434 434 434 434 434
 434 434 434 434 434 434 434 434 434]
atom H rad-grids = 99, ang-grids = [ 50  50  50  50  50  50  50  50  50  50  50  50  50  50  50  50  50  50
  50  50  50  50  50  50  50  50  50  50  50  50  86  86  86  86  86  86
  86 434 434 434 434 434 434 434 434 434 434 590 590 590 590 590 590 590
 590 590 590 590 590 590 590 590 590 590 590 590 590 590 590 590 590 590
 590 590 434 434 434 434 434 434 434 434 434 434 434 434 434 434 434 434
 434 434 434 434 434 434 434 434 434]
    CPU time for generating atomic grids                                 0.18 sec, wall time      0.01 sec, GPU time      6.27 ms
Padding 164 grids
    CPU time for sorting grids                                           0.00 sec, wall time      0.00 sec, GPU time      0.96 ms
tot grids = 324608
    CPU time for setting up grids                                        0.18 sec, wall time      0.01 sec, GPU time      7.33 ms
Number of shells for each [l, nctr] group
    [0 1] : 14
    [0 3] : 6
    [0 5] : 4
    [1 1] : 10
    [1 3] : 4
    [2 1] : 4
324608 grids on Device 0
0 - 324608 grids are calculated on Device 0.
mem_info: unallocated=39778.69 MB, used=30.35 MB, free=226.65 MB, free_blocks=37
41948.634112 MB memory is available on Device 0, block_size None
    CPU time for eval rho on Device 0                                    0.05 sec, wall time      0.04 sec, GPU time     40.42 ms
    CPU time for eval vxc on Device 0                                    0.00 sec, wall time      0.00 sec, GPU time      1.07 ms
0 - 324608 grids are calculated on Device 0.
mem_info: unallocated=39770.69 MB, used=38.77 MB, free=218.23 MB, free_blocks=34
41931.421696 MB memory is available on Device 0, block_size None
    CPU time for eval integration on 0                                   0.02 sec, wall time      0.02 sec, GPU time     18.71 ms
    CPU time for nr_rks                                                  0.50 sec, wall time      0.08 sec, GPU time     78.31 ms
nelec by numeric integration = 31.982888451974773
    CPU time for vxc                                                     0.68 sec, wall time      0.09 sec, GPU time     85.76 ms
Build CDERI ...
Psi4 predefined JKFIT basis set def2-svp-jkfit for HF
Default auxbasis def2-svp-jkfit is applied universally
num shells = 136, num cGTOs = 410
    CPU time for 2c2e                                                    0.27 sec, wall time      0.02 sec, GPU time     21.73 ms
Number of shells for each [l, nctr] group
    [0 1] : 14
    [0 3] : 6
    [0 5] : 4
    [1 1] : 10
    [1 3] : 4
    [2 1] : 4
Number of shells for each [l, nctr] group
    [0 1] : 42
    [0 3] : 6
    [0 5] : 4
    [1 1] : 40
    [1 3] : 4
    [2 1] : 27
    [2 2] : 3
    [2 3] : 1
    [3 1] : 2
    [3 2] : 3
    [4 1] : 4
    CPU time for Initialize q_cond                                       0.48 sec, wall time      0.02 sec, GPU time     15.79 ms
    CPU time for Get AO pairing                                          0.00 sec, wall time      0.00 sec, GPU time      0.59 ms
    CPU time for AO indices                                              0.00 sec, wall time      0.00 sec, GPU time      0.19 ms
    CPU time for Aux AO indices                                          0.00 sec, wall time      0.00 sec, GPU time      0.38 ms
    CPU time for Get AO pairs                                            0.00 sec, wall time      0.00 sec, GPU time      0.83 ms
    CPU time for prepare intopt                                          0.70 sec, wall time      0.02 sec, GPU time     21.52 ms
size of aux basis 410
Saving CDERI on GPU
CDERI size 0.011 GB on Device 0
    CPU time for Initialize GPU cache on Device 0                        0.00 sec, wall time      0.00 sec, GPU time      0.27 ms
    CPU time for solve 5 / 21 on Device 0                                0.12 sec, wall time      0.00 sec, GPU time      3.49 ms
    CPU time for transfer data for 5 / 21 on Device 0                    0.00 sec, wall time      0.00 sec, GPU time      0.08 ms
    CPU time for solve 2 / 21 on Device 0                                0.00 sec, wall time      0.00 sec, GPU time      2.24 ms
    CPU time for transfer data for 2 / 21 on Device 0                    0.00 sec, wall time      0.00 sec, GPU time      0.07 ms
    CPU time for solve 4 / 21 on Device 0                                0.11 sec, wall time      0.00 sec, GPU time      2.39 ms
    CPU time for transfer data for 4 / 21 on Device 0                    0.00 sec, wall time      0.00 sec, GPU time      0.07 ms
    CPU time for solve 12 / 21 on Device 0                               0.03 sec, wall time      0.00 sec, GPU time      2.62 ms
    CPU time for transfer data for 12 / 21 on Device 0                   0.00 sec, wall time      0.00 sec, GPU time      0.07 ms
    CPU time for solve 3 / 21 on Device 0                                0.00 sec, wall time      0.00 sec, GPU time      2.13 ms
    CPU time for transfer data for 3 / 21 on Device 0                    0.00 sec, wall time      0.00 sec, GPU time      0.07 ms
    CPU time for solve 11 / 21 on Device 0                               0.00 sec, wall time      0.00 sec, GPU time      2.33 ms
    CPU time for transfer data for 11 / 21 on Device 0                   0.00 sec, wall time      0.00 sec, GPU time      0.07 ms
    CPU time for solve 14 / 21 on Device 0                               0.00 sec, wall time      0.00 sec, GPU time      3.09 ms
    CPU time for transfer data for 14 / 21 on Device 0                   0.00 sec, wall time      0.00 sec, GPU time      0.07 ms
    CPU time for solve 17 / 21 on Device 0                               0.00 sec, wall time      0.00 sec, GPU time      2.24 ms
    CPU time for transfer data for 17 / 21 on Device 0                   0.00 sec, wall time      0.00 sec, GPU time      0.07 ms
    CPU time for solve 1 / 21 on Device 0                                0.00 sec, wall time      0.00 sec, GPU time      2.08 ms
    CPU time for transfer data for 1 / 21 on Device 0                    0.00 sec, wall time      0.00 sec, GPU time      0.07 ms
    CPU time for solve 0 / 21 on Device 0                                0.00 sec, wall time      0.00 sec, GPU time      2.04 ms
    CPU time for transfer data for 0 / 21 on Device 0                    0.00 sec, wall time      0.00 sec, GPU time      0.07 ms
    CPU time for solve 16 / 21 on Device 0                               0.00 sec, wall time      0.00 sec, GPU time      2.55 ms
    CPU time for transfer data for 16 / 21 on Device 0                   0.00 sec, wall time      0.00 sec, GPU time      0.07 ms
    CPU time for solve 8 / 21 on Device 0                                0.00 sec, wall time      0.00 sec, GPU time      2.13 ms
    CPU time for transfer data for 8 / 21 on Device 0                    0.00 sec, wall time      0.00 sec, GPU time      0.07 ms
    CPU time for solve 10 / 21 on Device 0                               0.00 sec, wall time      0.00 sec, GPU time      2.09 ms
    CPU time for transfer data for 10 / 21 on Device 0                   0.00 sec, wall time      0.00 sec, GPU time      0.07 ms
    CPU time for solve 7 / 21 on Device 0                                0.00 sec, wall time      0.00 sec, GPU time      2.25 ms
    CPU time for transfer data for 7 / 21 on Device 0                    0.00 sec, wall time      0.00 sec, GPU time      0.07 ms
    CPU time for solve 20 / 21 on Device 0                               0.00 sec, wall time      0.00 sec, GPU time      2.69 ms
    CPU time for transfer data for 20 / 21 on Device 0                   0.00 sec, wall time      0.00 sec, GPU time      0.07 ms
    CPU time for solve 19 / 21 on Device 0                               0.00 sec, wall time      0.00 sec, GPU time      2.20 ms
    CPU time for transfer data for 19 / 21 on Device 0                   0.00 sec, wall time      0.00 sec, GPU time      0.07 ms
    CPU time for solve 15 / 21 on Device 0                               0.00 sec, wall time      0.00 sec, GPU time      2.13 ms
    CPU time for transfer data for 15 / 21 on Device 0                   0.00 sec, wall time      0.00 sec, GPU time      0.07 ms
    CPU time for solve 13 / 21 on Device 0                               0.00 sec, wall time      0.00 sec, GPU time      2.16 ms
    CPU time for transfer data for 13 / 21 on Device 0                   0.00 sec, wall time      0.00 sec, GPU time      0.07 ms
    CPU time for solve 6 / 21 on Device 0                                0.00 sec, wall time      0.00 sec, GPU time      2.08 ms
    CPU time for transfer data for 6 / 21 on Device 0                    0.00 sec, wall time      0.00 sec, GPU time      0.08 ms
    CPU time for solve 9 / 21 on Device 0                                0.00 sec, wall time      0.00 sec, GPU time      2.10 ms
    CPU time for transfer data for 9 / 21 on Device 0                    0.00 sec, wall time      0.00 sec, GPU time      0.07 ms
    CPU time for solve 18 / 21 on Device 0                               0.00 sec, wall time      0.00 sec, GPU time      2.13 ms
    CPU time for transfer data for 18 / 21 on Device 0                   0.00 sec, wall time      0.00 sec, GPU time      0.07 ms
    CPU time for cholesky_eri                                            1.01 sec, wall time      0.07 sec, GPU time     74.14 ms
    CPU time for init jk                                                 1.28 sec, wall time      0.10 sec, GPU time     96.02 ms
38.135 GB memory available on Device 0, block size = 256
    CPU time for vj and vk on Device 0                                   0.00 sec, wall time      0.00 sec, GPU time      2.85 ms
    CPU time for vj and vk                                               0.01 sec, wall time      0.00 sec, GPU time      4.97 ms
    CPU time for veff                                                    1.29 sec, wall time      0.10 sec, GPU time    102.29 ms
E1 = -508.13783152769247  Ecoul = 217.21664957682202  Exc = -26.84353925369645
init E= -192.748905000029
cond(S) = 3028.3460338473606
    CPU time for SCF initialization                                      2.90 sec, wall time      0.23 sec, GPU time    234.73 ms
    CPU time for DIIS                                                    0.00 sec, wall time      0.00 sec, GPU time      0.11 ms
    CPU time for eig                                                     0.00 sec, wall time      0.00 sec, GPU time      2.63 ms
  HOMO = -0.282134573012324  LUMO = 0.0772733208261892  gap = 9.77999 eV
324608 grids on Device 0
0 - 324608 grids are calculated on Device 0.
mem_info: unallocated=39778.69 MB, used=43.53 MB, free=213.47 MB, free_blocks=36
41934.818816 MB memory is available on Device 0, block_size None
    CPU time for eval rho on Device 0                                    0.04 sec, wall time      0.04 sec, GPU time     36.84 ms
    CPU time for eval vxc on Device 0                                    0.00 sec, wall time      0.00 sec, GPU time      0.99 ms
0 - 324608 grids are calculated on Device 0.
mem_info: unallocated=39770.69 MB, used=51.93 MB, free=205.07 MB, free_blocks=34
41917.620736 MB memory is available on Device 0, block_size None
    CPU time for eval integration on 0                                   0.02 sec, wall time      0.02 sec, GPU time     19.32 ms
    CPU time for nr_rks                                                  0.06 sec, wall time      0.06 sec, GPU time     59.62 ms
nelec by numeric integration = 31.999999521792077
    CPU time for vxc                                                     0.06 sec, wall time      0.06 sec, GPU time     59.78 ms
38.134 GB memory available on Device 0, block size = 256
    CPU time for vj and vk on Device 0                                   0.00 sec, wall time      0.00 sec, GPU time      3.58 ms
    CPU time for vj and vk                                               0.01 sec, wall time      0.01 sec, GPU time      6.38 ms
    CPU time for veff                                                    0.01 sec, wall time      0.01 sec, GPU time      7.72 ms
    CPU time for veff                                                    0.07 sec, wall time      0.07 sec, GPU time     69.70 ms
E1 = -508.12641262734735  Ecoul = 217.21108700406478  Exc = -26.843231633643207
    CPU time for cycle=1                                                 0.07 sec, wall time      0.07 sec, GPU time     74.68 ms
cycle= 1 E= -192.742741052387  delta_E= 0.00616  |g|= 0.0226  |ddm|= 0.129
diis-c [-5.10035495e-04  1.00000000e+00]
    CPU time for DIIS                                                    0.00 sec, wall time      0.00 sec, GPU time      1.82 ms
    CPU time for eig                                                     0.00 sec, wall time      0.00 sec, GPU time      3.24 ms
  HOMO = -0.282367194449128  LUMO = 0.0799435745416944  gap = 9.85898 eV
324608 grids on Device 0
0 - 324608 grids are calculated on Device 0.
mem_info: unallocated=39778.69 MB, used=43.64 MB, free=213.36 MB, free_blocks=33
41934.697984 MB memory is available on Device 0, block_size None
    CPU time for eval rho on Device 0                                    0.04 sec, wall time      0.04 sec, GPU time     36.02 ms
    CPU time for eval vxc on Device 0                                    0.00 sec, wall time      0.00 sec, GPU time      0.93 ms
0 - 324608 grids are calculated on Device 0.
mem_info: unallocated=39770.69 MB, used=52.05 MB, free=204.96 MB, free_blocks=33
41917.499904 MB memory is available on Device 0, block_size None
    CPU time for eval integration on 0                                   0.02 sec, wall time      0.02 sec, GPU time     18.34 ms
    CPU time for nr_rks                                                  0.06 sec, wall time      0.06 sec, GPU time     57.59 ms
nelec by numeric integration = 31.999999526586283
    CPU time for vxc                                                     0.06 sec, wall time      0.06 sec, GPU time     57.74 ms
38.134 GB memory available on Device 0, block size = 256
    CPU time for vj and vk on Device 0                                   0.00 sec, wall time      0.00 sec, GPU time      3.12 ms
    CPU time for vj and vk                                               0.01 sec, wall time      0.01 sec, GPU time      5.92 ms
    CPU time for veff                                                    0.01 sec, wall time      0.01 sec, GPU time      7.22 ms
    CPU time for veff                                                    0.07 sec, wall time      0.07 sec, GPU time     67.11 ms
E1 = -508.28033663713825  Ecoul = 217.37388420113285  Exc = -26.85216933651155
    CPU time for cycle=2                                                 0.07 sec, wall time      0.07 sec, GPU time     74.40 ms
cycle= 2 E= -192.742805567979  delta_E= -6.45e-05  |g|= 0.0161  |ddm|= 0.0412
diis-c [-2.15900931e-05  4.10617621e-01  5.89382379e-01]
    CPU time for DIIS                                                    0.00 sec, wall time      0.00 sec, GPU time      1.98 ms
    CPU time for eig                                                     0.00 sec, wall time      0.00 sec, GPU time      3.25 ms
  HOMO = -0.279706952193272  LUMO = 0.0803790785823255  gap = 9.79844 eV
324608 grids on Device 0
0 - 324608 grids are calculated on Device 0.
mem_info: unallocated=39778.69 MB, used=43.70 MB, free=213.30 MB, free_blocks=35
41934.637568 MB memory is available on Device 0, block_size None
    CPU time for eval rho on Device 0                                    0.04 sec, wall time      0.04 sec, GPU time     37.00 ms
    CPU time for eval vxc on Device 0                                    0.00 sec, wall time      0.00 sec, GPU time      0.92 ms
0 - 324608 grids are calculated on Device 0.
mem_info: unallocated=39770.69 MB, used=52.10 MB, free=204.90 MB, free_blocks=34
41917.439488 MB memory is available on Device 0, block_size None
    CPU time for eval integration on 0                                   0.02 sec, wall time      0.02 sec, GPU time     18.29 ms
    CPU time for nr_rks                                                  0.06 sec, wall time      0.06 sec, GPU time     58.53 ms
nelec by numeric integration = 31.999999526540922
    CPU time for vxc                                                     0.06 sec, wall time      0.06 sec, GPU time     58.69 ms
38.134 GB memory available on Device 0, block size = 256
    CPU time for vj and vk on Device 0                                   0.00 sec, wall time      0.00 sec, GPU time      3.12 ms
    CPU time for vj and vk                                               0.01 sec, wall time      0.01 sec, GPU time      5.94 ms
    CPU time for veff                                                    0.01 sec, wall time      0.01 sec, GPU time      7.25 ms
    CPU time for veff                                                    0.07 sec, wall time      0.07 sec, GPU time     68.10 ms
E1 = -508.17306421755086  Ecoul = 217.25876504675938  Exc = -26.844380591177355
    CPU time for cycle=3                                                 0.08 sec, wall time      0.08 sec, GPU time     75.57 ms
cycle= 3 E= -192.742863557431  delta_E= -5.8e-05  |g|= 0.00323  |ddm|= 0.0197
diis-c [-1.68754689e-06  1.18819175e-01  2.37967988e-01  6.43212837e-01]
    CPU time for DIIS                                                    0.00 sec, wall time      0.00 sec, GPU time      2.28 ms
    CPU time for eig                                                     0.00 sec, wall time      0.00 sec, GPU time      3.25 ms
  HOMO = -0.280491884071705  LUMO = 0.0802159800001912  gap = 9.81536 eV
324608 grids on Device 0
0 - 324608 grids are calculated on Device 0.
mem_info: unallocated=39778.69 MB, used=43.76 MB, free=213.24 MB, free_blocks=38
41934.577152 MB memory is available on Device 0, block_size None
    CPU time for eval rho on Device 0                                    0.04 sec, wall time      0.04 sec, GPU time     36.23 ms
    CPU time for eval vxc on Device 0                                    0.00 sec, wall time      0.00 sec, GPU time      0.93 ms
0 - 324608 grids are calculated on Device 0.
mem_info: unallocated=39770.69 MB, used=52.16 MB, free=204.84 MB, free_blocks=37
41917.379072 MB memory is available on Device 0, block_size None
    CPU time for eval integration on 0                                   0.02 sec, wall time      0.02 sec, GPU time     18.61 ms
    CPU time for nr_rks                                                  0.06 sec, wall time      0.06 sec, GPU time     58.08 ms
nelec by numeric integration = 31.99999952618472
    CPU time for vxc                                                     0.06 sec, wall time      0.06 sec, GPU time     58.23 ms
38.134 GB memory available on Device 0, block size = 256
    CPU time for vj and vk on Device 0                                   0.00 sec, wall time      0.00 sec, GPU time      3.16 ms
    CPU time for vj and vk                                               0.01 sec, wall time      0.01 sec, GPU time      6.17 ms
    CPU time for veff                                                    0.01 sec, wall time      0.01 sec, GPU time      7.48 ms
    CPU time for veff                                                    0.07 sec, wall time      0.07 sec, GPU time     67.87 ms
E1 = -508.1966711918052  Ecoul = 217.28447646809514  Exc = -26.846487498181723
    CPU time for cycle=4                                                 0.08 sec, wall time      0.08 sec, GPU time     75.62 ms
cycle= 4 E= -192.742866017353  delta_E= -2.46e-06  |g|= 0.000797  |ddm|= 0.00408
diis-c [-2.40589195e-07  8.10459352e-03  3.59168659e-02  2.17095623e-01
  7.38882918e-01]
    CPU time for DIIS                                                    0.00 sec, wall time      0.00 sec, GPU time      2.61 ms
    CPU time for eig                                                     0.00 sec, wall time      0.00 sec, GPU time      3.26 ms
  HOMO = -0.280361026207666  LUMO = 0.0801943227086586  gap = 9.81121 eV
324608 grids on Device 0
0 - 324608 grids are calculated on Device 0.
mem_info: unallocated=39778.69 MB, used=43.82 MB, free=213.18 MB, free_blocks=35
41934.516736 MB memory is available on Device 0, block_size None
    CPU time for eval rho on Device 0                                    0.04 sec, wall time      0.04 sec, GPU time     37.15 ms
    CPU time for eval vxc on Device 0                                    0.00 sec, wall time      0.00 sec, GPU time      0.94 ms
0 - 324608 grids are calculated on Device 0.
mem_info: unallocated=39770.69 MB, used=52.22 MB, free=204.78 MB, free_blocks=34
41917.318656 MB memory is available on Device 0, block_size None
    CPU time for eval integration on 0                                   0.02 sec, wall time      0.02 sec, GPU time     18.35 ms
    CPU time for nr_rks                                                  0.06 sec, wall time      0.06 sec, GPU time     58.75 ms
nelec by numeric integration = 31.999999526090022
    CPU time for vxc                                                     0.06 sec, wall time      0.06 sec, GPU time     58.90 ms
38.134 GB memory available on Device 0, block size = 256
    CPU time for vj and vk on Device 0                                   0.01 sec, wall time      0.01 sec, GPU time      7.47 ms
    CPU time for vj and vk                                               0.01 sec, wall time      0.01 sec, GPU time     10.81 ms
    CPU time for veff                                                    0.01 sec, wall time      0.01 sec, GPU time     12.18 ms
    CPU time for veff                                                    0.07 sec, wall time      0.07 sec, GPU time     73.25 ms
E1 = -508.19440348744456  Ecoul = 217.28191383364248  Exc = -26.846192640305865
    CPU time for cycle=5                                                 0.08 sec, wall time      0.08 sec, GPU time     81.41 ms
cycle= 5 E= -192.74286608957  delta_E= -7.22e-08  |g|= 0.000553  |ddm|= 0.00112
diis-c [-1.69217475e-08 -9.59117107e-03 -9.79659655e-03  3.90993272e-02
  4.54140713e-01  5.26147727e-01]
    CPU time for DIIS                                                    0.00 sec, wall time      0.00 sec, GPU time      2.95 ms
    CPU time for eig                                                     0.00 sec, wall time      0.00 sec, GPU time      3.26 ms
  HOMO = -0.280404323680543  LUMO = 0.0802056167199898  gap = 9.81270 eV
324608 grids on Device 0
0 - 324608 grids are calculated on Device 0.
mem_info: unallocated=39778.69 MB, used=43.87 MB, free=213.13 MB, free_blocks=35
41934.45632 MB memory is available on Device 0, block_size None
    CPU time for eval rho on Device 0                                    0.05 sec, wall time      0.05 sec, GPU time     52.67 ms
    CPU time for eval vxc on Device 0                                    0.00 sec, wall time      0.00 sec, GPU time      0.95 ms
0 - 324608 grids are calculated on Device 0.
mem_info: unallocated=39770.69 MB, used=52.28 MB, free=204.73 MB, free_blocks=34
41917.25824 MB memory is available on Device 0, block_size None
    CPU time for eval integration on 0                                   0.02 sec, wall time      0.02 sec, GPU time     18.78 ms
    CPU time for nr_rks                                                  0.07 sec, wall time      0.07 sec, GPU time     74.91 ms
nelec by numeric integration = 31.999999526183434
    CPU time for vxc                                                     0.08 sec, wall time      0.08 sec, GPU time     75.07 ms
38.134 GB memory available on Device 0, block size = 256
    CPU time for vj and vk on Device 0                                   0.00 sec, wall time      0.00 sec, GPU time      4.60 ms
    CPU time for vj and vk                                               0.01 sec, wall time      0.01 sec, GPU time      7.63 ms
    CPU time for veff                                                    0.01 sec, wall time      0.01 sec, GPU time      9.02 ms
    CPU time for veff                                                    0.09 sec, wall time      0.09 sec, GPU time     86.27 ms
E1 = -508.19439890198544  Ecoul = 217.2819629750626  Exc = -26.846246428842427
    CPU time for cycle=6                                                 0.09 sec, wall time      0.09 sec, GPU time     94.73 ms
cycle= 6 E= -192.742866151227  delta_E= -6.17e-08  |g|= 7.72e-05  |ddm|= 0.000463
diis-c [-9.32453101e-10 -4.20854313e-03 -5.90552034e-03  2.47649815e-03
  1.24639940e-01  1.96086289e-01  6.86911336e-01]
    CPU time for DIIS                                                    0.00 sec, wall time      0.00 sec, GPU time      3.25 ms
    CPU time for eig                                                     0.00 sec, wall time      0.00 sec, GPU time      3.25 ms
  HOMO = -0.280398731146925  LUMO = 0.0802054891918355  gap = 9.81254 eV
324608 grids on Device 0
0 - 324608 grids are calculated on Device 0.
mem_info: unallocated=39778.69 MB, used=43.93 MB, free=213.07 MB, free_blocks=38
41934.395904 MB memory is available on Device 0, block_size None
    CPU time for eval rho on Device 0                                    0.04 sec, wall time      0.04 sec, GPU time     37.27 ms
    CPU time for eval vxc on Device 0                                    0.00 sec, wall time      0.00 sec, GPU time      0.95 ms
0 - 324608 grids are calculated on Device 0.
mem_info: unallocated=39770.69 MB, used=52.33 MB, free=204.67 MB, free_blocks=35
41917.197824 MB memory is available on Device 0, block_size None
    CPU time for eval integration on 0                                   0.02 sec, wall time      0.02 sec, GPU time     18.70 ms
    CPU time for nr_rks                                                  0.06 sec, wall time      0.06 sec, GPU time     59.29 ms
nelec by numeric integration = 31.999999526180915
    CPU time for vxc                                                     0.06 sec, wall time      0.06 sec, GPU time     59.45 ms
38.134 GB memory available on Device 0, block size = 256
    CPU time for vj and vk on Device 0                                   0.00 sec, wall time      0.00 sec, GPU time      3.28 ms
    CPU time for vj and vk                                               0.01 sec, wall time      0.01 sec, GPU time      6.07 ms
    CPU time for veff                                                    0.01 sec, wall time      0.01 sec, GPU time      7.40 ms
    CPU time for veff                                                    0.07 sec, wall time      0.07 sec, GPU time     69.01 ms
E1 = -508.1944198280839  Ecoul = 217.28197564415444  Exc = -26.84623817309331
    CPU time for cycle=7                                                 0.08 sec, wall time      0.08 sec, GPU time     77.74 ms
cycle= 7 E= -192.742866152484  delta_E= -1.26e-09  |g|= 2.63e-05  |ddm|= 0.000107
diis-c [-9.64659432e-11 -1.51018612e-03 -2.25891552e-03 -5.99017618e-04
  3.52961937e-02  6.49606473e-02  3.28219584e-01  5.75891694e-01]
    CPU time for DIIS                                                    0.00 sec, wall time      0.00 sec, GPU time      3.56 ms
    CPU time for eig                                                     0.00 sec, wall time      0.00 sec, GPU time      3.26 ms
  HOMO = -0.280399170211042  LUMO = 0.0802057641620204  gap = 9.81256 eV
324608 grids on Device 0
0 - 324608 grids are calculated on Device 0.
mem_info: unallocated=39778.69 MB, used=43.99 MB, free=213.01 MB, free_blocks=39
41934.335488 MB memory is available on Device 0, block_size None
    CPU time for eval rho on Device 0                                    0.04 sec, wall time      0.04 sec, GPU time     37.25 ms
    CPU time for eval vxc on Device 0                                    0.00 sec, wall time      0.00 sec, GPU time      0.94 ms
0 - 324608 grids are calculated on Device 0.
mem_info: unallocated=39770.69 MB, used=52.39 MB, free=204.61 MB, free_blocks=38
41917.137408 MB memory is available on Device 0, block_size None
    CPU time for eval integration on 0                                   0.02 sec, wall time      0.02 sec, GPU time     18.93 ms
    CPU time for nr_rks                                                  0.06 sec, wall time      0.06 sec, GPU time     59.42 ms
nelec by numeric integration = 31.999999526174808
    CPU time for vxc                                                     0.06 sec, wall time      0.06 sec, GPU time     59.59 ms
38.134 GB memory available on Device 0, block size = 256
    CPU time for vj and vk on Device 0                                   0.00 sec, wall time      0.00 sec, GPU time      3.20 ms
    CPU time for vj and vk                                               0.01 sec, wall time      0.01 sec, GPU time      6.01 ms
    CPU time for veff                                                    0.01 sec, wall time      0.01 sec, GPU time      7.34 ms
    CPU time for veff                                                    0.07 sec, wall time      0.07 sec, GPU time     69.07 ms
E1 = -508.194421260944  Ecoul = 217.28197959906885  Exc = -26.846240695311877
    CPU time for cycle=8                                                 0.08 sec, wall time      0.08 sec, GPU time     78.12 ms
cycle= 8 E= -192.742866152649  delta_E= -1.64e-10  |g|= 5.63e-06  |ddm|= 2.93e-05
diis-c [-5.40426110e-12 -2.08787748e-05 -5.49407634e-05 -5.44880254e-04
 -4.33810653e-03 -3.27796341e-03  2.53214167e-02  1.87978168e-01
  7.94937185e-01]
    CPU time for DIIS                                                    0.00 sec, wall time      0.00 sec, GPU time      3.93 ms
    CPU time for eig                                                     0.00 sec, wall time      0.00 sec, GPU time      3.23 ms
  HOMO = -0.280398748857106  LUMO = 0.0802058193302469  gap = 9.81255 eV
324608 grids on Device 0
0 - 324608 grids are calculated on Device 0.
mem_info: unallocated=39778.69 MB, used=44.05 MB, free=212.95 MB, free_blocks=40
41934.275072 MB memory is available on Device 0, block_size None
    CPU time for eval rho on Device 0                                    0.04 sec, wall time      0.04 sec, GPU time     37.71 ms
    CPU time for eval vxc on Device 0                                    0.00 sec, wall time      0.00 sec, GPU time      0.94 ms
0 - 324608 grids are calculated on Device 0.
mem_info: unallocated=39770.69 MB, used=52.45 MB, free=204.55 MB, free_blocks=38
41917.076992 MB memory is available on Device 0, block_size None
    CPU time for eval integration on 0                                   0.02 sec, wall time      0.02 sec, GPU time     18.59 ms
    CPU time for nr_rks                                                  0.06 sec, wall time      0.06 sec, GPU time     59.61 ms
nelec by numeric integration = 31.99999952617639
    CPU time for vxc                                                     0.06 sec, wall time      0.06 sec, GPU time     59.76 ms
38.134 GB memory available on Device 0, block size = 256
    CPU time for vj and vk on Device 0                                   0.01 sec, wall time      0.01 sec, GPU time      6.87 ms
    CPU time for vj and vk                                               0.01 sec, wall time      0.01 sec, GPU time     10.26 ms
    CPU time for veff                                                    0.01 sec, wall time      0.01 sec, GPU time     11.56 ms
    CPU time for veff                                                    0.07 sec, wall time      0.07 sec, GPU time     73.48 ms
E1 = -508.1944196174525  Ecoul = 217.28197746873275  Exc = -26.846240208475237
    CPU time for cycle=9                                                 0.08 sec, wall time      0.08 sec, GPU time     82.86 ms
cycle= 9 E= -192.742866152657  delta_E= -8.01e-12  |g|= 1.15e-06  |ddm|= 7.24e-06
    CPU time for SCF                                                     3.62 sec, wall time      0.95 sec, GPU time    952.27 ms
converged SCF energy = -192.742866152657


******** <class 'gpu4pyscf.grad.rhf.Gradients_Scanner'> for <class 'pyscf.scf.hf.DFRKS_Scanner'> ********
unit = Eh/Bohr
max_memory 4000 MB (current use 1109 MB)
Number of shells for each [l, nctr] group
    [0 1] : 14
    [0 3] : 6
    [0 5] : 4
    [1 1] : 10
    [1 3] : 4
    [2 1] : 4
    CPU time for Initialize q_cond                                       0.74 sec, wall time      0.03 sec, GPU time     25.14 ms
    CPU time for Get AO pairing                                          0.11 sec, wall time      0.00 sec, GPU time      0.93 ms
    CPU time for AO indices                                              0.00 sec, wall time      0.00 sec, GPU time      0.22 ms
    CPU time for Initialize GPU cache                                    0.01 sec, wall time      0.00 sec, GPU time      0.56 ms
    CPU time for gradients of h1e                                        2.39 sec, wall time      0.08 sec, GPU time     84.36 ms
324608 grids on Device 0
0 - 324608 grids are calculated on Device 0.
mem_info: unallocated=39778.69 MB, used=23.91 MB, free=233.10 MB, free_blocks=38
41955.395072 MB memory is available on Device 0, block_size None
    CPU time for gradient of vxc                                         0.17 sec, wall time      0.17 sec, GPU time    173.85 ms
    CPU time for grad vxc                                                0.18 sec, wall time      0.18 sec, GPU time    175.25 ms
    CPU time for vxc total                                               0.18 sec, wall time      0.18 sec, GPU time    175.55 ms
Number of shells for each [l, nprim] group
    [0 5] : 4
    [0 3] : 6
    [0 1] : 14
    [1 3] : 4
    [1 1] : 10
    [2 1] : 4
Number of shells for each [l, nprim] group
    [0 5] : 4
    [0 3] : 6
    [0 1] : 42
    [1 3] : 4
    [1 1] : 40
    [2 3] : 1
    [2 2] : 3
    [2 1] : 27
    [3 2] : 3
    [3 1] : 2
    [4 1] : 4
dm_factor shape (90, 16)
sp_batches = 1, ksh_batches = 11
41.711 GB free memory. nao_pair=4195 naux=480 batch_size=480 blksize=480
    CPU time for contract dm                                             0.03 sec, wall time      0.03 sec, GPU time     34.65 ms
int2c2e_kernel, nimgs = 1
    CPU time for contract int3c2e_ejk_ip1                                0.04 sec, wall time      0.04 sec, GPU time     49.45 ms
int2c2e_kernel, nimgs = 1
    CPU time for contract int2c2e_ip1                                    0.04 sec, wall time      0.04 sec, GPU time     21.61 ms
    CPU time for gradients of veff                                       0.32 sec, wall time      0.32 sec, GPU time    320.86 ms
Computing Gradients of NR-HF Coulomb repulsion
    CPU time for gradients of 2e part                                    0.32 sec, wall time      0.32 sec, GPU time    320.97 ms
    CPU time for gradients of electronic part                            2.71 sec, wall time      0.41 sec, GPU time    406.12 ms
    CPU time for SCF gradients                                           2.71 sec, wall time      0.41 sec, GPU time    406.62 ms
--------------- DFRKS_Scanner gradients ---------------
         x                y                z
0 O    -0.0011511498    -0.0025624107     0.0013341696
1 C    -0.0011755561    -0.0002177180    -0.0013636850
2 C    -0.0006330513     0.0029941544    -0.0023410802
3 C     0.0020117441    -0.0020287577     0.0014063531
4 H     0.0027908480     0.0010269464     0.0004293752
5 H    -0.0024918162    -0.0007574651     0.0029668361
6 H     0.0002243065     0.0008945138    -0.0013939209
7 H     0.0004056555     0.0006668422     0.0001245087
8 H     0.0003421059    -0.0000006165    -0.0004925425
9 H    -0.0003223035    -0.0000152639    -0.0006672504
----------------------------------------------
cycle 2: E = -192.742866153  dE = -0.00260625  norm(grad) = 0.00817846

Geometry optimization cycle 3
Cartesian coordinates (Angstrom)
 Atom        New coordinates             dX        dY        dZ
   O  -0.801805  -0.734962   0.075485   -0.005395 -0.004241 -0.004924
   C   0.218440   0.070517  -0.472019   -0.004929 -0.005279  0.004005
   C  -0.957112   0.662105   0.157774    0.009578 -0.009498  0.018096
   C   1.548848   0.041729   0.219869   -0.006844  0.007230 -0.003004
   H   0.257928   0.056471  -1.575767   -0.030068 -0.004815 -0.001425
   H  -1.739910   1.085929  -0.490052    0.061508  0.016271 -0.037865
   H  -0.874668   1.101909   1.165207   -0.007524 -0.026759  0.031982
   H   2.151411   0.930313  -0.032872   -0.007920  0.005697 -0.013321
   H   2.121811  -0.850311  -0.081020   -0.003755  0.004756  0.006874
   H   1.406984   0.006942   1.310612   -0.004730  0.016564 -0.000687
New geometry
   1 O     -0.801804906416  -0.734961839506   0.075485292858 AA   -1.515191678458  -1.388876588673   0.142646529933 Bohr
   2 C      0.218439826470   0.070517157246  -0.472018853759 AA    0.412791446726   0.133258114278  -0.891986359236 Bohr
   3 C     -0.957112459330   0.662105445040   0.157774269134 AA   -1.808680418543   1.251197956709   0.298150158167 Bohr
   4 C      1.548847994054   0.041728712990   0.219868777648 AA    2.926898517345   0.078855839082   0.415491773098 Bohr
   5 H      0.257928012109   0.056471067488  -1.575767464319 AA    0.487413302740   0.106714851514  -2.977768943563 Bohr
   6 H     -1.739909727319   1.085929261818  -0.490051966091 AA   -3.287952866099   2.052108895487  -0.926064002717 Bohr
   7 H     -0.874668230588   1.101909350362   1.165207347405 AA   -1.652883405668   2.082306886281   2.201922764926 Bohr
   8 H      2.151411256708   0.930313490564  -0.032871755140 AA    4.065578056484   1.758037707155  -0.062118614448 Bohr
   9 H      2.121811231906  -0.850310758655  -0.081019813649 AA    4.009642116329  -1.606854454630  -0.153105258460 Bohr
  10 H      1.406984418765   0.006942112663   1.310611545912 AA    2.658815212996   0.013118691659   2.476696877467 Bohr


******** <class 'pyscf.scf.hf.DFRKS_Scanner'> ********
method = DFRKS_Scanner
initial guess = minao
damping factor = None
level_shift factor = None
DIIS = <class 'gpu4pyscf.scf.diis.CDIIS'>
diis_start_cycle = 1
diis_space = 8
diis_damp = 0
SCF conv_tol = 1e-10
SCF conv_tol_grad = None
SCF max_cycles = 50
direct_scf = False
XC library gpu4pyscf.dft.libxc version 7.0.0 (CUDA)
    unable to decode the reference due to https://github.com/NVIDIA/cuda-python/issues/29
XC functionals = PBE0
radial grids: 
Treutler-Ahlrichs [JCP 102, 346 (1995); DOI:10.1063/1.469408] (M4) radial grids

becke partition: Becke, JCP 88, 2547 (1988); DOI:10.1063/1.454033
pruning grids: <function nwchem_prune at 0x14b55ceca7a0>
grids dens level: 3
symmetrized grids: False
atomic radii adjust function: <function treutler_atomic_radii_adjust at 0x14b55ceca840>
User specified grid scheme (99, 590)
small_rho_cutoff = 0
Set gradient conv threshold to 1e-05
Number of shells for each [l, nprim] group
    [0 5] : 4
    [0 3] : 6
    [0 1] : 14
    [1 3] : 4
    [1 1] : 10
    [2 1] : 4
sp_blocks = 21, ksh_blocks = 1, shm_size = 59512 B
    CPU time for processing contract_int3c2e_auxvec                      0.00 sec, wall time      0.00 sec, GPU time      2.35 ms
Number of shells for each [l, nprim] group
    [0 5] : 4
    [0 3] : 6
    [0 1] : 14
    [1 3] : 4
    [1 1] : 10
    [2 1] : 4
Number of shells for each [l, nprim] group
    [0 5] : 4
    [0 3] : 6
    [0 1] : 14
    [1 3] : 4
    [1 1] : 10
    [2 1] : 4
    CPU time for hcore                                                   1.14 sec, wall time      0.04 sec, GPU time     41.68 ms
atom O rad-grids = 99, ang-grids = [ 50  50  50  50  50  50  50  50  50  50  50  50  50  50  50  50  50  50
  50  50  50  50  50  50  50  50  50  50  50  50  86  86  86  86  86  86
  86  86  86  86  86  86  86 434 434 434 434 434 434 434 434 590 590 590
 590 590 590 590 590 590 590 590 590 590 590 590 590 590 590 590 590 590
 590 590 590 590 590 590 434 434 434 434 434 434 434 434 434 434 434 434
 434 434 434 434 434 434 434 434 434]
atom C rad-grids = 99, ang-grids = [ 50  50  50  50  50  50  50  50  50  50  50  50  50  50  50  50  50  50
  50  50  50  50  50  50  50  50  50  50  50  50  86  86  86  86  86  86
  86  86  86  86  86  86 434 434 434 434 434 434 434 434 434 590 590 590
 590 590 590 590 590 590 590 590 590 590 590 590 590 590 590 590 590 590
 590 590 590 590 590 434 434 434 434 434 434 434 434 434 434 434 434 434
 434 434 434 434 434 434 434 434 434]
atom H rad-grids = 99, ang-grids = [ 50  50  50  50  50  50  50  50  50  50  50  50  50  50  50  50  50  50
  50  50  50  50  50  50  50  50  50  50  50  50  86  86  86  86  86  86
  86 434 434 434 434 434 434 434 434 434 434 590 590 590 590 590 590 590
 590 590 590 590 590 590 590 590 590 590 590 590 590 590 590 590 590 590
 590 590 434 434 434 434 434 434 434 434 434 434 434 434 434 434 434 434
 434 434 434 434 434 434 434 434 434]
    CPU time for generating atomic grids                                 0.11 sec, wall time      0.01 sec, GPU time      6.36 ms
Padding 164 grids
    CPU time for sorting grids                                           0.10 sec, wall time      0.00 sec, GPU time      0.94 ms
tot grids = 324608
    CPU time for setting up grids                                        0.21 sec, wall time      0.01 sec, GPU time      7.40 ms
Number of shells for each [l, nctr] group
    [0 1] : 14
    [0 3] : 6
    [0 5] : 4
    [1 1] : 10
    [1 3] : 4
    [2 1] : 4
324608 grids on Device 0
0 - 324608 grids are calculated on Device 0.
mem_info: unallocated=39778.69 MB, used=30.35 MB, free=226.65 MB, free_blocks=38
41948.634112 MB memory is available on Device 0, block_size None
    CPU time for eval rho on Device 0                                    0.73 sec, wall time      0.04 sec, GPU time     39.64 ms
    CPU time for eval vxc on Device 0                                    0.00 sec, wall time      0.00 sec, GPU time      1.00 ms
0 - 324608 grids are calculated on Device 0.
mem_info: unallocated=39770.69 MB, used=38.77 MB, free=218.23 MB, free_blocks=34
41931.421696 MB memory is available on Device 0, block_size None
    CPU time for eval integration on 0                                   0.02 sec, wall time      0.02 sec, GPU time     19.16 ms
    CPU time for nr_rks                                                  0.75 sec, wall time      0.06 sec, GPU time     62.55 ms
nelec by numeric integration = 31.99581178227388
    CPU time for vxc                                                     0.96 sec, wall time      0.07 sec, GPU time     70.06 ms
Build CDERI ...
Psi4 predefined JKFIT basis set def2-svp-jkfit for HF
Default auxbasis def2-svp-jkfit is applied universally
num shells = 136, num cGTOs = 410
    CPU time for 2c2e                                                    0.42 sec, wall time      0.02 sec, GPU time     24.90 ms
Number of shells for each [l, nctr] group
    [0 1] : 14
    [0 3] : 6
    [0 5] : 4
    [1 1] : 10
    [1 3] : 4
    [2 1] : 4
Number of shells for each [l, nctr] group
    [0 1] : 42
    [0 3] : 6
    [0 5] : 4
    [1 1] : 40
    [1 3] : 4
    [2 1] : 27
    [2 2] : 3
    [2 3] : 1
    [3 1] : 2
    [3 2] : 3
    [4 1] : 4
    CPU time for Initialize q_cond                                       0.57 sec, wall time      0.02 sec, GPU time     20.54 ms
    CPU time for Get AO pairing                                          0.12 sec, wall time      0.00 sec, GPU time      0.60 ms
    CPU time for AO indices                                              0.00 sec, wall time      0.00 sec, GPU time      0.20 ms
    CPU time for Aux AO indices                                          0.00 sec, wall time      0.00 sec, GPU time      0.36 ms
    CPU time for Get AO pairs                                            0.00 sec, wall time      0.00 sec, GPU time      0.83 ms
    CPU time for prepare intopt                                          0.83 sec, wall time      0.03 sec, GPU time     29.47 ms
size of aux basis 410
Saving CDERI on GPU
CDERI size 0.011 GB on Device 0
    CPU time for Initialize GPU cache on Device 0                        0.00 sec, wall time      0.00 sec, GPU time      0.47 ms
    CPU time for solve 5 / 21 on Device 0                                0.00 sec, wall time      0.00 sec, GPU time      4.42 ms
    CPU time for transfer data for 5 / 21 on Device 0                    0.00 sec, wall time      0.00 sec, GPU time      0.08 ms
    CPU time for solve 2 / 21 on Device 0                                0.00 sec, wall time      0.00 sec, GPU time      2.29 ms
    CPU time for transfer data for 2 / 21 on Device 0                    0.00 sec, wall time      0.00 sec, GPU time      0.07 ms
    CPU time for solve 4 / 21 on Device 0                                0.00 sec, wall time      0.00 sec, GPU time      2.39 ms
    CPU time for transfer data for 4 / 21 on Device 0                    0.00 sec, wall time      0.00 sec, GPU time      0.07 ms
    CPU time for solve 12 / 21 on Device 0                               0.00 sec, wall time      0.00 sec, GPU time      2.63 ms
    CPU time for transfer data for 12 / 21 on Device 0                   0.00 sec, wall time      0.00 sec, GPU time      0.07 ms
    CPU time for solve 3 / 21 on Device 0                                0.00 sec, wall time      0.00 sec, GPU time      2.13 ms
    CPU time for transfer data for 3 / 21 on Device 0                    0.00 sec, wall time      0.00 sec, GPU time      0.07 ms
    CPU time for solve 11 / 21 on Device 0                               0.00 sec, wall time      0.00 sec, GPU time      2.33 ms
    CPU time for transfer data for 11 / 21 on Device 0                   0.00 sec, wall time      0.00 sec, GPU time      0.07 ms
    CPU time for solve 14 / 21 on Device 0                               0.00 sec, wall time      0.00 sec, GPU time      3.11 ms
    CPU time for transfer data for 14 / 21 on Device 0                   0.00 sec, wall time      0.00 sec, GPU time      0.07 ms
    CPU time for solve 17 / 21 on Device 0                               0.00 sec, wall time      0.00 sec, GPU time      2.26 ms
    CPU time for transfer data for 17 / 21 on Device 0                   0.00 sec, wall time      0.00 sec, GPU time      0.07 ms
    CPU time for solve 1 / 21 on Device 0                                0.00 sec, wall time      0.00 sec, GPU time      2.08 ms
    CPU time for transfer data for 1 / 21 on Device 0                    0.00 sec, wall time      0.00 sec, GPU time      0.07 ms
    CPU time for solve 0 / 21 on Device 0                                0.00 sec, wall time      0.00 sec, GPU time      2.06 ms
    CPU time for transfer data for 0 / 21 on Device 0                    0.00 sec, wall time      0.00 sec, GPU time      0.07 ms
    CPU time for solve 16 / 21 on Device 0                               0.00 sec, wall time      0.00 sec, GPU time      2.19 ms
    CPU time for transfer data for 16 / 21 on Device 0                   0.00 sec, wall time      0.00 sec, GPU time      0.07 ms
    CPU time for solve 8 / 21 on Device 0                                0.00 sec, wall time      0.00 sec, GPU time      2.16 ms
    CPU time for transfer data for 8 / 21 on Device 0                    0.00 sec, wall time      0.00 sec, GPU time      0.07 ms
    CPU time for solve 10 / 21 on Device 0                               0.00 sec, wall time      0.00 sec, GPU time      2.30 ms
    CPU time for transfer data for 10 / 21 on Device 0                   0.00 sec, wall time      0.00 sec, GPU time      0.07 ms
    CPU time for solve 7 / 21 on Device 0                                0.00 sec, wall time      0.00 sec, GPU time      2.12 ms
    CPU time for transfer data for 7 / 21 on Device 0                    0.00 sec, wall time      0.00 sec, GPU time      0.07 ms
    CPU time for solve 20 / 21 on Device 0                               0.00 sec, wall time      0.00 sec, GPU time      2.93 ms
    CPU time for transfer data for 20 / 21 on Device 0                   0.00 sec, wall time      0.00 sec, GPU time      0.07 ms
    CPU time for solve 19 / 21 on Device 0                               0.00 sec, wall time      0.00 sec, GPU time      2.69 ms
    CPU time for transfer data for 19 / 21 on Device 0                   0.00 sec, wall time      0.00 sec, GPU time      0.07 ms
    CPU time for solve 15 / 21 on Device 0                               0.00 sec, wall time      0.00 sec, GPU time      2.12 ms
    CPU time for transfer data for 15 / 21 on Device 0                   0.00 sec, wall time      0.00 sec, GPU time      0.07 ms
    CPU time for solve 13 / 21 on Device 0                               0.00 sec, wall time      0.00 sec, GPU time      2.15 ms
    CPU time for transfer data for 13 / 21 on Device 0                   0.00 sec, wall time      0.00 sec, GPU time      0.07 ms
    CPU time for solve 6 / 21 on Device 0                                0.00 sec, wall time      0.00 sec, GPU time      2.06 ms
    CPU time for transfer data for 6 / 21 on Device 0                    0.00 sec, wall time      0.00 sec, GPU time      0.07 ms
    CPU time for solve 9 / 21 on Device 0                                0.00 sec, wall time      0.00 sec, GPU time      2.11 ms
    CPU time for transfer data for 9 / 21 on Device 0                    0.00 sec, wall time      0.00 sec, GPU time      0.07 ms
    CPU time for solve 18 / 21 on Device 0                               0.00 sec, wall time      0.00 sec, GPU time      2.14 ms
    CPU time for transfer data for 18 / 21 on Device 0                   0.00 sec, wall time      0.00 sec, GPU time      0.07 ms
    CPU time for cholesky_eri                                            0.98 sec, wall time      0.08 sec, GPU time     84.27 ms
    CPU time for init jk                                                 1.40 sec, wall time      0.11 sec, GPU time    109.27 ms
38.135 GB memory available on Device 0, block size = 256
    CPU time for vj and vk on Device 0                                   0.01 sec, wall time      0.01 sec, GPU time      5.54 ms
    CPU time for vj and vk                                               0.01 sec, wall time      0.01 sec, GPU time      8.04 ms
    CPU time for veff                                                    1.41 sec, wall time      0.12 sec, GPU time    118.77 ms
E1 = -508.8181884592284  Ecoul = 217.5813824451905  Exc = -26.85025237627812
init E= -192.748073531329
cond(S) = 3113.3755804956163
    CPU time for SCF initialization                                      3.52 sec, wall time      0.24 sec, GPU time    235.15 ms
    CPU time for DIIS                                                    0.00 sec, wall time      0.00 sec, GPU time      0.12 ms
    CPU time for eig                                                     0.00 sec, wall time      0.00 sec, GPU time      2.67 ms
  HOMO = -0.280962920876522  LUMO = 0.0787988665671684  gap = 9.78962 eV
324608 grids on Device 0
0 - 324608 grids are calculated on Device 0.
mem_info: unallocated=39778.69 MB, used=43.53 MB, free=213.47 MB, free_blocks=33
41934.818816 MB memory is available on Device 0, block_size None
    CPU time for eval rho on Device 0                                    0.05 sec, wall time      0.05 sec, GPU time     47.52 ms
    CPU time for eval vxc on Device 0                                    0.00 sec, wall time      0.00 sec, GPU time      0.96 ms
0 - 324608 grids are calculated on Device 0.
mem_info: unallocated=39770.69 MB, used=51.93 MB, free=205.07 MB, free_blocks=33
41917.620736 MB memory is available on Device 0, block_size None
    CPU time for eval integration on 0                                   0.02 sec, wall time      0.02 sec, GPU time     18.49 ms
    CPU time for nr_rks                                                  0.07 sec, wall time      0.07 sec, GPU time     69.65 ms
nelec by numeric integration = 31.9999991016175
    CPU time for vxc                                                     0.07 sec, wall time      0.07 sec, GPU time     69.81 ms
38.134 GB memory available on Device 0, block size = 256
    CPU time for vj and vk on Device 0                                   0.00 sec, wall time      0.00 sec, GPU time      3.16 ms
    CPU time for vj and vk                                               0.01 sec, wall time      0.01 sec, GPU time      5.95 ms
    CPU time for veff                                                    0.01 sec, wall time      0.01 sec, GPU time      7.32 ms
    CPU time for veff                                                    0.08 sec, wall time      0.08 sec, GPU time     79.52 ms
E1 = -508.813918832126  Ecoul = 217.5823834804621  Exc = -26.8505119645612
    CPU time for cycle=1                                                 0.08 sec, wall time      0.08 sec, GPU time     84.54 ms
cycle= 1 E= -192.743062457238  delta_E= 0.00501  |g|= 0.00802  |ddm|= 0.0907
diis-c [-6.43223591e-05  1.00000000e+00]
    CPU time for DIIS                                                    0.00 sec, wall time      0.00 sec, GPU time      1.76 ms
    CPU time for eig                                                     0.00 sec, wall time      0.00 sec, GPU time      3.23 ms
  HOMO = -0.281890421443104  LUMO = 0.0795230039000486  gap = 9.83456 eV
324608 grids on Device 0
0 - 324608 grids are calculated on Device 0.
mem_info: unallocated=39778.69 MB, used=43.64 MB, free=213.36 MB, free_blocks=31
41934.697984 MB memory is available on Device 0, block_size None
    CPU time for eval rho on Device 0                                    0.04 sec, wall time      0.04 sec, GPU time     36.73 ms
    CPU time for eval vxc on Device 0                                    0.00 sec, wall time      0.00 sec, GPU time      0.94 ms
0 - 324608 grids are calculated on Device 0.
mem_info: unallocated=39770.69 MB, used=52.05 MB, free=204.96 MB, free_blocks=31
41917.499904 MB memory is available on Device 0, block_size None
    CPU time for eval integration on 0                                   0.02 sec, wall time      0.02 sec, GPU time     18.32 ms
    CPU time for nr_rks                                                  0.06 sec, wall time      0.06 sec, GPU time     58.32 ms
nelec by numeric integration = 31.999999102892584
    CPU time for vxc                                                     0.06 sec, wall time      0.06 sec, GPU time     58.48 ms
38.134 GB memory available on Device 0, block size = 256
    CPU time for vj and vk on Device 0                                   0.01 sec, wall time      0.01 sec, GPU time      6.48 ms
    CPU time for vj and vk                                               0.01 sec, wall time      0.01 sec, GPU time      9.91 ms
    CPU time for veff                                                    0.01 sec, wall time      0.01 sec, GPU time     11.24 ms
    CPU time for veff                                                    0.07 sec, wall time      0.07 sec, GPU time     71.89 ms
E1 = -508.8549920171123  Ecoul = 217.62653349099497  Exc = -26.85359749969096
    CPU time for cycle=2                                                 0.08 sec, wall time      0.08 sec, GPU time     79.20 ms
cycle= 2 E= -192.743071166821  delta_E= -8.71e-06  |g|= 0.0072  |ddm|= 0.0171
diis-c [-8.92918237e-06  4.68112446e-01  5.31887554e-01]
    CPU time for DIIS                                                    0.00 sec, wall time      0.00 sec, GPU time      2.00 ms
    CPU time for eig                                                     0.00 sec, wall time      0.00 sec, GPU time      3.24 ms
  HOMO = -0.280535656986303  LUMO = 0.0795203850603155  gap = 9.79762 eV
324608 grids on Device 0
0 - 324608 grids are calculated on Device 0.
mem_info: unallocated=39778.69 MB, used=43.70 MB, free=213.30 MB, free_blocks=34
41934.637568 MB memory is available on Device 0, block_size None
    CPU time for eval rho on Device 0                                    0.05 sec, wall time      0.05 sec, GPU time     49.76 ms
    CPU time for eval vxc on Device 0                                    0.00 sec, wall time      0.00 sec, GPU time      0.94 ms
0 - 324608 grids are calculated on Device 0.
mem_info: unallocated=39770.69 MB, used=52.10 MB, free=204.90 MB, free_blocks=34
41917.439488 MB memory is available on Device 0, block_size None
    CPU time for eval integration on 0                                   0.02 sec, wall time      0.02 sec, GPU time     18.52 ms
    CPU time for nr_rks                                                  0.07 sec, wall time      0.07 sec, GPU time     71.61 ms
nelec by numeric integration = 31.999999101453003
    CPU time for vxc                                                     0.07 sec, wall time      0.07 sec, GPU time     71.77 ms
38.134 GB memory available on Device 0, block size = 256
    CPU time for vj and vk on Device 0                                   0.00 sec, wall time      0.00 sec, GPU time      3.18 ms
    CPU time for vj and vk                                               0.01 sec, wall time      0.01 sec, GPU time      5.97 ms
    CPU time for veff                                                    0.01 sec, wall time      0.01 sec, GPU time      7.30 ms
    CPU time for veff                                                    0.08 sec, wall time      0.08 sec, GPU time     81.22 ms
E1 = -508.82315517646975  Ecoul = 217.5915603488372  Exc = -26.85047020429233
    CPU time for cycle=3                                                 0.09 sec, wall time      0.09 sec, GPU time     88.89 ms
cycle= 3 E= -192.743080172938  delta_E= -9.01e-06  |g|= 0.00275  |ddm|= 0.00846
diis-c [-7.55928982e-07  1.16394692e-01  2.89473281e-01  5.94132027e-01]
    CPU time for DIIS                                                    0.00 sec, wall time      0.00 sec, GPU time      2.31 ms
    CPU time for eig                                                     0.00 sec, wall time      0.00 sec, GPU time      3.25 ms
  HOMO = -0.28092137128697  LUMO = 0.0795326715444634  gap = 9.80845 eV
324608 grids on Device 0
0 - 324608 grids are calculated on Device 0.
mem_info: unallocated=39778.69 MB, used=43.76 MB, free=213.24 MB, free_blocks=33
41934.577152 MB memory is available on Device 0, block_size None
    CPU time for eval rho on Device 0                                    0.05 sec, wall time      0.05 sec, GPU time     50.19 ms
    CPU time for eval vxc on Device 0                                    0.00 sec, wall time      0.00 sec, GPU time      0.94 ms
0 - 324608 grids are calculated on Device 0.
mem_info: unallocated=39770.69 MB, used=52.16 MB, free=204.84 MB, free_blocks=32
41917.379072 MB memory is available on Device 0, block_size None
    CPU time for eval integration on 0                                   0.02 sec, wall time      0.02 sec, GPU time     18.64 ms
    CPU time for nr_rks                                                  0.07 sec, wall time      0.07 sec, GPU time     72.19 ms
nelec by numeric integration = 31.999999101784695
    CPU time for vxc                                                     0.07 sec, wall time      0.07 sec, GPU time     72.36 ms
38.134 GB memory available on Device 0, block size = 256
    CPU time for vj and vk on Device 0                                   0.00 sec, wall time      0.00 sec, GPU time      3.18 ms
    CPU time for vj and vk                                               0.01 sec, wall time      0.01 sec, GPU time      6.02 ms
    CPU time for veff                                                    0.01 sec, wall time      0.01 sec, GPU time      7.34 ms
    CPU time for veff                                                    0.08 sec, wall time      0.08 sec, GPU time     81.86 ms
E1 = -508.8286228910184  Ecoul = 217.59784184534362  Exc = -26.851285366633995
    CPU time for cycle=4                                                 0.09 sec, wall time      0.09 sec, GPU time     89.78 ms
cycle= 4 E= -192.743081553321  delta_E= -1.38e-06  |g|= 0.000568  |ddm|= 0.00264
diis-c [-7.25511200e-08  3.52149780e-03  6.47164325e-02  2.28647318e-01
  7.03114752e-01]
    CPU time for DIIS                                                    0.00 sec, wall time      0.00 sec, GPU time      2.63 ms
    CPU time for eig                                                     0.00 sec, wall time      0.00 sec, GPU time      3.26 ms
  HOMO = -0.280933996010226  LUMO = 0.079508009263366  gap = 9.80813 eV
324608 grids on Device 0
0 - 324608 grids are calculated on Device 0.
mem_info: unallocated=39778.69 MB, used=43.82 MB, free=213.18 MB, free_blocks=33
41934.516736 MB memory is available on Device 0, block_size None
    CPU time for eval rho on Device 0                                    0.05 sec, wall time      0.05 sec, GPU time     53.18 ms
    CPU time for eval vxc on Device 0                                    0.00 sec, wall time      0.00 sec, GPU time      0.93 ms
0 - 324608 grids are calculated on Device 0.
mem_info: unallocated=39770.69 MB, used=52.22 MB, free=204.78 MB, free_blocks=34
41917.318656 MB memory is available on Device 0, block_size None
    CPU time for eval integration on 0                                   0.02 sec, wall time      0.02 sec, GPU time     18.93 ms
    CPU time for nr_rks                                                  0.08 sec, wall time      0.08 sec, GPU time     75.45 ms
nelec by numeric integration = 31.99999910176721
    CPU time for vxc                                                     0.08 sec, wall time      0.08 sec, GPU time     75.60 ms
38.134 GB memory available on Device 0, block size = 256
    CPU time for vj and vk on Device 0                                   0.00 sec, wall time      0.00 sec, GPU time      4.52 ms
    CPU time for vj and vk                                               0.01 sec, wall time      0.01 sec, GPU time      7.55 ms
    CPU time for veff                                                    0.01 sec, wall time      0.01 sec, GPU time      8.85 ms
    CPU time for veff                                                    0.09 sec, wall time      0.09 sec, GPU time     86.62 ms
E1 = -508.83079577694184  Ecoul = 217.6001041529915  Exc = -26.85137485003619
    CPU time for cycle=5                                                 0.09 sec, wall time      0.09 sec, GPU time     94.85 ms
cycle= 5 E= -192.743081614999  delta_E= -6.17e-08  |g|= 0.000219  |ddm|= 0.000699
diis-c [-3.21295688e-09 -9.94946870e-03  2.55312942e-04  4.30229485e-02
  3.37485262e-01  6.29185946e-01]
    CPU time for DIIS                                                    0.00 sec, wall time      0.00 sec, GPU time      2.93 ms
    CPU time for eig                                                     0.00 sec, wall time      0.00 sec, GPU time      3.32 ms
  HOMO = -0.280919927396506  LUMO = 0.0795147491990027  gap = 9.80793 eV
324608 grids on Device 0
0 - 324608 grids are calculated on Device 0.
mem_info: unallocated=39778.69 MB, used=43.87 MB, free=213.13 MB, free_blocks=33
41934.45632 MB memory is available on Device 0, block_size None
    CPU time for eval rho on Device 0                                    0.05 sec, wall time      0.05 sec, GPU time     50.18 ms
    CPU time for eval vxc on Device 0                                    0.00 sec, wall time      0.00 sec, GPU time      0.93 ms
0 - 324608 grids are calculated on Device 0.
mem_info: unallocated=39770.69 MB, used=52.28 MB, free=204.73 MB, free_blocks=32
41917.25824 MB memory is available on Device 0, block_size None
    CPU time for eval integration on 0                                   0.02 sec, wall time      0.02 sec, GPU time     18.19 ms
    CPU time for nr_rks                                                  0.07 sec, wall time      0.07 sec, GPU time     71.63 ms
nelec by numeric integration = 31.9999991017399
    CPU time for vxc                                                     0.07 sec, wall time      0.07 sec, GPU time     71.78 ms
38.134 GB memory available on Device 0, block size = 256
    CPU time for vj and vk on Device 0                                   0.00 sec, wall time      0.00 sec, GPU time      4.16 ms
    CPU time for vj and vk                                               0.01 sec, wall time      0.01 sec, GPU time      7.16 ms
    CPU time for veff                                                    0.01 sec, wall time      0.01 sec, GPU time      8.46 ms
    CPU time for veff                                                    0.08 sec, wall time      0.08 sec, GPU time     82.58 ms
E1 = -508.82993707924516  Ecoul = 217.5991928495575  Exc = -26.85132225599375
    CPU time for cycle=6                                                 0.09 sec, wall time      0.09 sec, GPU time     91.02 ms
cycle= 6 E= -192.743081626694  delta_E= -1.17e-08  |g|= 3.49e-05  |ddm|= 0.000233
diis-c [-2.24740061e-10 -3.81613488e-03 -2.43066938e-03  6.19211427e-03
  9.73466965e-02  2.33721477e-01  6.68986516e-01]
    CPU time for DIIS                                                    0.00 sec, wall time      0.00 sec, GPU time      3.21 ms
    CPU time for eig                                                     0.00 sec, wall time      0.00 sec, GPU time      3.25 ms
  HOMO = -0.2809181055744  LUMO = 0.0795151986365619  gap = 9.80789 eV
324608 grids on Device 0
0 - 324608 grids are calculated on Device 0.
mem_info: unallocated=39778.69 MB, used=43.93 MB, free=213.07 MB, free_blocks=34
41934.395904 MB memory is available on Device 0, block_size None
    CPU time for eval rho on Device 0                                    0.05 sec, wall time      0.05 sec, GPU time     51.21 ms
    CPU time for eval vxc on Device 0                                    0.00 sec, wall time      0.00 sec, GPU time      1.11 ms
0 - 324608 grids are calculated on Device 0.
mem_info: unallocated=39770.69 MB, used=52.33 MB, free=204.67 MB, free_blocks=34
41917.197824 MB memory is available on Device 0, block_size None
    CPU time for eval integration on 0                                   0.02 sec, wall time      0.02 sec, GPU time     18.81 ms
    CPU time for nr_rks                                                  0.07 sec, wall time      0.07 sec, GPU time     74.08 ms
nelec by numeric integration = 31.999999101747477
    CPU time for vxc                                                     0.07 sec, wall time      0.07 sec, GPU time     74.26 ms
38.134 GB memory available on Device 0, block size = 256
    CPU time for vj and vk on Device 0                                   0.00 sec, wall time      0.00 sec, GPU time      3.46 ms
    CPU time for vj and vk                                               0.01 sec, wall time      0.01 sec, GPU time      6.53 ms
    CPU time for veff                                                    0.01 sec, wall time      0.01 sec, GPU time      7.93 ms
    CPU time for veff                                                    0.09 sec, wall time      0.09 sec, GPU time     84.48 ms
E1 = -508.8298900542284  Ecoul = 217.5991406630526  Exc = -26.85131709479053
    CPU time for cycle=7                                                 0.09 sec, wall time      0.09 sec, GPU time     93.29 ms
cycle= 7 E= -192.743081626979  delta_E= -2.85e-10  |g|= 1.13e-05  |ddm|= 5.19e-05
diis-c [-1.68484396e-11 -9.92987147e-04 -1.00746180e-03 -1.50276249e-04
  1.87012068e-02  5.62427370e-02  2.94612441e-01  6.32594341e-01]
    CPU time for DIIS                                                    0.00 sec, wall time      0.00 sec, GPU time      3.63 ms
    CPU time for eig                                                     0.00 sec, wall time      0.00 sec, GPU time      3.25 ms
  HOMO = -0.280919594826503  LUMO = 0.0795150483342325  gap = 9.80793 eV
324608 grids on Device 0
0 - 324608 grids are calculated on Device 0.
mem_info: unallocated=39778.69 MB, used=43.99 MB, free=213.01 MB, free_blocks=34
41934.335488 MB memory is available on Device 0, block_size None
    CPU time for eval rho on Device 0                                    0.04 sec, wall time      0.04 sec, GPU time     37.91 ms
    CPU time for eval vxc on Device 0                                    0.00 sec, wall time      0.00 sec, GPU time      0.95 ms
0 - 324608 grids are calculated on Device 0.
mem_info: unallocated=39770.69 MB, used=52.39 MB, free=204.61 MB, free_blocks=34
41917.137408 MB memory is available on Device 0, block_size None
    CPU time for eval integration on 0                                   0.02 sec, wall time      0.02 sec, GPU time     18.72 ms
    CPU time for nr_rks                                                  0.06 sec, wall time      0.06 sec, GPU time     60.08 ms
nelec by numeric integration = 31.999999101742546
    CPU time for vxc                                                     0.06 sec, wall time      0.06 sec, GPU time     60.26 ms
38.134 GB memory available on Device 0, block size = 256
    CPU time for vj and vk on Device 0                                   0.00 sec, wall time      0.00 sec, GPU time      3.58 ms
    CPU time for vj and vk                                               0.01 sec, wall time      0.01 sec, GPU time      6.56 ms
    CPU time for veff                                                    0.01 sec, wall time      0.01 sec, GPU time      8.01 ms
    CPU time for veff                                                    0.07 sec, wall time      0.07 sec, GPU time     70.44 ms
E1 = -508.82993494039226  Ecoul = 217.59918929097125  Exc = -26.851320836577095
    CPU time for cycle=8                                                 0.08 sec, wall time      0.08 sec, GPU time     79.99 ms
cycle= 8 E= -192.743081627011  delta_E= -3.18e-11  |g|= 1.97e-06  |ddm|= 1.39e-05
    CPU time for SCF                                                     4.23 sec, wall time      0.94 sec, GPU time    938.97 ms
converged SCF energy = -192.743081627011


******** <class 'gpu4pyscf.grad.rhf.Gradients_Scanner'> for <class 'pyscf.scf.hf.DFRKS_Scanner'> ********
unit = Eh/Bohr
max_memory 4000 MB (current use 1111 MB)
Number of shells for each [l, nctr] group
    [0 1] : 14
    [0 3] : 6
    [0 5] : 4
    [1 1] : 10
    [1 3] : 4
    [2 1] : 4
    CPU time for Initialize q_cond                                       0.13 sec, wall time      0.00 sec, GPU time      2.37 ms
    CPU time for Get AO pairing                                          0.00 sec, wall time      0.00 sec, GPU time      1.53 ms
    CPU time for AO indices                                              0.00 sec, wall time      0.00 sec, GPU time      0.34 ms
    CPU time for Initialize GPU cache                                    0.00 sec, wall time      0.00 sec, GPU time      0.77 ms
    CPU time for gradients of h1e                                        1.56 sec, wall time      0.06 sec, GPU time     55.52 ms
324608 grids on Device 0
0 - 324608 grids are calculated on Device 0.
mem_info: unallocated=39778.69 MB, used=23.91 MB, free=233.10 MB, free_blocks=38
41955.395072 MB memory is available on Device 0, block_size None
    CPU time for gradient of vxc                                         0.19 sec, wall time      0.18 sec, GPU time    177.68 ms
    CPU time for grad vxc                                                0.29 sec, wall time      0.18 sec, GPU time    179.42 ms
    CPU time for vxc total                                               0.29 sec, wall time      0.18 sec, GPU time    179.87 ms
Number of shells for each [l, nprim] group
    [0 5] : 4
    [0 3] : 6
    [0 1] : 14
    [1 3] : 4
    [1 1] : 10
    [2 1] : 4
Number of shells for each [l, nprim] group
    [0 5] : 4
    [0 3] : 6
    [0 1] : 42
    [1 3] : 4
    [1 1] : 40
    [2 3] : 1
    [2 2] : 3
    [2 1] : 27
    [3 2] : 3
    [3 1] : 2
    [4 1] : 4
dm_factor shape (90, 16)
sp_batches = 1, ksh_batches = 11
41.711 GB free memory. nao_pair=4195 naux=480 batch_size=480 blksize=480
    CPU time for contract dm                                             0.03 sec, wall time      0.03 sec, GPU time     30.97 ms
int2c2e_kernel, nimgs = 1
    CPU time for contract int3c2e_ejk_ip1                                0.04 sec, wall time      0.04 sec, GPU time     50.77 ms
int2c2e_kernel, nimgs = 1
    CPU time for contract int2c2e_ip1                                    0.04 sec, wall time      0.04 sec, GPU time     21.66 ms
    CPU time for gradients of veff                                       0.43 sec, wall time      0.32 sec, GPU time    315.16 ms
Computing Gradients of NR-HF Coulomb repulsion
    CPU time for gradients of 2e part                                    0.43 sec, wall time      0.32 sec, GPU time    315.27 ms
    CPU time for gradients of electronic part                            1.99 sec, wall time      0.37 sec, GPU time    371.58 ms
    CPU time for SCF gradients                                           1.99 sec, wall time      0.37 sec, GPU time    372.26 ms
--------------- DFRKS_Scanner gradients ---------------
         x                y                z
0 O     0.0001183315     0.0017778216    -0.0008654973
1 C    -0.0050126537    -0.0000774329     0.0016441199
2 C     0.0046248158    -0.0031290735     0.0022781384
3 C    -0.0013668576     0.0015080852     0.0005411732
4 H     0.0005676871    -0.0006491056    -0.0025323797
5 H     0.0001067643    -0.0004484345    -0.0033732934
6 H     0.0005041684     0.0008546679     0.0026227430
7 H     0.0010345819     0.0007787000     0.0000256707
8 H    -0.0000155318    -0.0004479024    -0.0007541252
9 H    -0.0005609561    -0.0001676383     0.0004168078
----------------------------------------------
cycle 3: E = -192.743081627  dE = -0.000215474  norm(grad) = 0.0101064

Geometry optimization cycle 4
Cartesian coordinates (Angstrom)
 Atom        New coordinates             dX        dY        dZ
   O  -0.798618  -0.731707   0.078062    0.003187  0.003255  0.002577
   C   0.222532   0.076386  -0.466961    0.004092  0.005869  0.005058
   C  -0.966145   0.665956   0.150084   -0.009033  0.003850 -0.007690
   C   1.555837   0.036855   0.220344    0.006989 -0.004874  0.000476
   H   0.263690   0.063323  -1.567329    0.005762  0.006852  0.008438
   H  -1.759654   1.083656  -0.484451   -0.019744 -0.002274  0.005601
   H  -0.890519   1.106859   1.154044   -0.015851  0.004950 -0.011163
   H   2.157357   0.923255  -0.035182    0.005946 -0.007058 -0.002310
   H   2.124615  -0.855774  -0.083264    0.002803 -0.005463 -0.002244
   H   1.422801   0.001868   1.311611    0.015817 -0.005074  0.001000
New geometry
   1 O     -0.798618278186  -0.731706785158   0.078062066583 AA   -1.509169823844  -1.382725427434   0.147515926560 Bohr
   2 C      0.222531771607   0.076386343754  -0.466960766675 AA    0.420524102352   0.144349269353  -0.882427959932 Bohr
   3 C     -0.966145227990   0.665955526503   0.150084424122 AA   -1.825749877457   1.258473556231   0.283618457154 Bohr
   4 C      1.555837073532   0.036854526793   0.220344364348 AA    2.940105963420   0.069644962090   0.416390501710 Bohr
   5 H      0.263690120142   0.063322824332  -1.567329432963 AA    0.498302108823   0.119662795422  -2.961823375270 Bohr
   6 H     -1.759653990714   1.083655649921  -0.484450894847 AA   -3.325264116448   2.047812391689  -0.915479512060 Bohr
   7 H     -0.890519204777   1.106859399692   1.154044188206 AA   -1.682837405695   2.091661123819   2.180827451356 Bohr
   8 H      2.157357064439   0.923255015374  -0.035182186573 AA    4.076814004686   1.744699122188  -0.066484697087 Bohr
   9 H      2.124614722767  -0.855773878292  -0.083263723373 AA    4.014939946249  -1.617178254529  -0.157345633287 Bohr
  10 H      1.422801161831   0.001867646352   1.311611256584 AA    2.688704525573   0.003529340103   2.478586056840 Bohr


******** <class 'pyscf.scf.hf.DFRKS_Scanner'> ********
method = DFRKS_Scanner
initial guess = minao
damping factor = None
level_shift factor = None
DIIS = <class 'gpu4pyscf.scf.diis.CDIIS'>
diis_start_cycle = 1
diis_space = 8
diis_damp = 0
SCF conv_tol = 1e-10
SCF conv_tol_grad = None
SCF max_cycles = 50
direct_scf = False
XC library gpu4pyscf.dft.libxc version 7.0.0 (CUDA)
    unable to decode the reference due to https://github.com/NVIDIA/cuda-python/issues/29
XC functionals = PBE0
radial grids: 
Treutler-Ahlrichs [JCP 102, 346 (1995); DOI:10.1063/1.469408] (M4) radial grids

becke partition: Becke, JCP 88, 2547 (1988); DOI:10.1063/1.454033
pruning grids: <function nwchem_prune at 0x14b55ceca7a0>
grids dens level: 3
symmetrized grids: False
atomic radii adjust function: <function treutler_atomic_radii_adjust at 0x14b55ceca840>
User specified grid scheme (99, 590)
small_rho_cutoff = 0
Set gradient conv threshold to 1e-05
Number of shells for each [l, nprim] group
    [0 5] : 4
    [0 3] : 6
    [0 1] : 14
    [1 3] : 4
    [1 1] : 10
    [2 1] : 4
sp_blocks = 21, ksh_blocks = 1, shm_size = 59512 B
    CPU time for processing contract_int3c2e_auxvec                      0.00 sec, wall time      0.00 sec, GPU time      2.34 ms
Number of shells for each [l, nprim] group
    [0 5] : 4
    [0 3] : 6
    [0 1] : 14
    [1 3] : 4
    [1 1] : 10
    [2 1] : 4
Number of shells for each [l, nprim] group
    [0 5] : 4
    [0 3] : 6
    [0 1] : 14
    [1 3] : 4
    [1 1] : 10
    [2 1] : 4
    CPU time for hcore                                                   1.19 sec, wall time      0.04 sec, GPU time     42.32 ms
atom O rad-grids = 99, ang-grids = [ 50  50  50  50  50  50  50  50  50  50  50  50  50  50  50  50  50  50
  50  50  50  50  50  50  50  50  50  50  50  50  86  86  86  86  86  86
  86  86  86  86  86  86  86 434 434 434 434 434 434 434 434 590 590 590
 590 590 590 590 590 590 590 590 590 590 590 590 590 590 590 590 590 590
 590 590 590 590 590 590 434 434 434 434 434 434 434 434 434 434 434 434
 434 434 434 434 434 434 434 434 434]
atom C rad-grids = 99, ang-grids = [ 50  50  50  50  50  50  50  50  50  50  50  50  50  50  50  50  50  50
  50  50  50  50  50  50  50  50  50  50  50  50  86  86  86  86  86  86
  86  86  86  86  86  86 434 434 434 434 434 434 434 434 434 590 590 590
 590 590 590 590 590 590 590 590 590 590 590 590 590 590 590 590 590 590
 590 590 590 590 590 434 434 434 434 434 434 434 434 434 434 434 434 434
 434 434 434 434 434 434 434 434 434]
atom H rad-grids = 99, ang-grids = [ 50  50  50  50  50  50  50  50  50  50  50  50  50  50  50  50  50  50
  50  50  50  50  50  50  50  50  50  50  50  50  86  86  86  86  86  86
  86 434 434 434 434 434 434 434 434 434 434 590 590 590 590 590 590 590
 590 590 590 590 590 590 590 590 590 590 590 590 590 590 590 590 590 590
 590 590 434 434 434 434 434 434 434 434 434 434 434 434 434 434 434 434
 434 434 434 434 434 434 434 434 434]
    CPU time for generating atomic grids                                 0.21 sec, wall time      0.01 sec, GPU time      6.37 ms
Padding 164 grids
    CPU time for sorting grids                                           0.00 sec, wall time      0.00 sec, GPU time      0.94 ms
tot grids = 324608
    CPU time for setting up grids                                        0.22 sec, wall time      0.01 sec, GPU time      7.41 ms
Number of shells for each [l, nctr] group
    [0 1] : 14
    [0 3] : 6
    [0 5] : 4
    [1 1] : 10
    [1 3] : 4
    [2 1] : 4
324608 grids on Device 0
0 - 324608 grids are calculated on Device 0.
mem_info: unallocated=39778.69 MB, used=30.35 MB, free=226.65 MB, free_blocks=37
41948.634112 MB memory is available on Device 0, block_size None
    CPU time for eval rho on Device 0                                    0.36 sec, wall time      0.04 sec, GPU time     39.70 ms
    CPU time for eval vxc on Device 0                                    0.00 sec, wall time      0.00 sec, GPU time      1.01 ms
0 - 324608 grids are calculated on Device 0.
mem_info: unallocated=39770.69 MB, used=38.77 MB, free=218.23 MB, free_blocks=35
41931.421696 MB memory is available on Device 0, block_size None
    CPU time for eval integration on 0                                   0.02 sec, wall time      0.02 sec, GPU time     19.35 ms
    CPU time for nr_rks                                                  0.80 sec, wall time      0.08 sec, GPU time     75.46 ms
nelec by numeric integration = 32.00554048462122
    CPU time for vxc                                                     1.02 sec, wall time      0.08 sec, GPU time     82.98 ms
Build CDERI ...
Psi4 predefined JKFIT basis set def2-svp-jkfit for HF
Default auxbasis def2-svp-jkfit is applied universally
num shells = 136, num cGTOs = 410
    CPU time for 2c2e                                                    0.37 sec, wall time      0.02 sec, GPU time     24.24 ms
Number of shells for each [l, nctr] group
    [0 1] : 14
    [0 3] : 6
    [0 5] : 4
    [1 1] : 10
    [1 3] : 4
    [2 1] : 4
Number of shells for each [l, nctr] group
    [0 1] : 42
    [0 3] : 6
    [0 5] : 4
    [1 1] : 40
    [1 3] : 4
    [2 1] : 27
    [2 2] : 3
    [2 3] : 1
    [3 1] : 2
    [3 2] : 3
    [4 1] : 4
    CPU time for Initialize q_cond                                       0.38 sec, wall time      0.01 sec, GPU time     14.41 ms
    CPU time for Get AO pairing                                          0.00 sec, wall time      0.00 sec, GPU time      0.59 ms
    CPU time for AO indices                                              0.00 sec, wall time      0.00 sec, GPU time      0.19 ms
    CPU time for Aux AO indices                                          0.12 sec, wall time      0.00 sec, GPU time      0.37 ms
    CPU time for Get AO pairs                                            0.00 sec, wall time      0.00 sec, GPU time      0.83 ms
    CPU time for prepare intopt                                          0.62 sec, wall time      0.02 sec, GPU time     19.95 ms
size of aux basis 410
Saving CDERI on GPU
CDERI size 0.011 GB on Device 0
    CPU time for Initialize GPU cache on Device 0                        0.00 sec, wall time      0.00 sec, GPU time      0.25 ms
    CPU time for solve 5 / 21 on Device 0                                0.12 sec, wall time      0.00 sec, GPU time      3.41 ms
    CPU time for transfer data for 5 / 21 on Device 0                    0.00 sec, wall time      0.00 sec, GPU time      0.08 ms
    CPU time for solve 2 / 21 on Device 0                                0.04 sec, wall time      0.00 sec, GPU time      2.21 ms
    CPU time for transfer data for 2 / 21 on Device 0                    0.00 sec, wall time      0.00 sec, GPU time      0.07 ms
    CPU time for solve 4 / 21 on Device 0                                0.01 sec, wall time      0.00 sec, GPU time      2.56 ms
    CPU time for transfer data for 4 / 21 on Device 0                    0.00 sec, wall time      0.00 sec, GPU time      0.07 ms
    CPU time for solve 12 / 21 on Device 0                               0.00 sec, wall time      0.00 sec, GPU time      2.63 ms
    CPU time for transfer data for 12 / 21 on Device 0                   0.00 sec, wall time      0.00 sec, GPU time      0.07 ms
    CPU time for solve 3 / 21 on Device 0                                0.00 sec, wall time      0.00 sec, GPU time      2.11 ms
    CPU time for transfer data for 3 / 21 on Device 0                    0.00 sec, wall time      0.00 sec, GPU time      0.07 ms
    CPU time for solve 11 / 21 on Device 0                               0.00 sec, wall time      0.00 sec, GPU time      2.30 ms
    CPU time for transfer data for 11 / 21 on Device 0                   0.00 sec, wall time      0.00 sec, GPU time      0.26 ms
    CPU time for solve 14 / 21 on Device 0                               0.00 sec, wall time      0.00 sec, GPU time      3.04 ms
    CPU time for transfer data for 14 / 21 on Device 0                   0.00 sec, wall time      0.00 sec, GPU time      0.07 ms
    CPU time for solve 17 / 21 on Device 0                               0.00 sec, wall time      0.00 sec, GPU time      2.23 ms
    CPU time for transfer data for 17 / 21 on Device 0                   0.00 sec, wall time      0.00 sec, GPU time      0.07 ms
    CPU time for solve 1 / 21 on Device 0                                0.00 sec, wall time      0.00 sec, GPU time      2.08 ms
    CPU time for transfer data for 1 / 21 on Device 0                    0.00 sec, wall time      0.00 sec, GPU time      0.07 ms
    CPU time for solve 0 / 21 on Device 0                                0.00 sec, wall time      0.00 sec, GPU time      2.04 ms
    CPU time for transfer data for 0 / 21 on Device 0                    0.00 sec, wall time      0.00 sec, GPU time      0.07 ms
    CPU time for solve 16 / 21 on Device 0                               0.00 sec, wall time      0.00 sec, GPU time      2.18 ms
    CPU time for transfer data for 16 / 21 on Device 0                   0.00 sec, wall time      0.00 sec, GPU time      0.07 ms
    CPU time for solve 8 / 21 on Device 0                                0.00 sec, wall time      0.00 sec, GPU time      2.14 ms
    CPU time for transfer data for 8 / 21 on Device 0                    0.00 sec, wall time      0.00 sec, GPU time      0.07 ms
    CPU time for solve 10 / 21 on Device 0                               0.00 sec, wall time      0.00 sec, GPU time      2.10 ms
    CPU time for transfer data for 10 / 21 on Device 0                   0.00 sec, wall time      0.00 sec, GPU time      0.07 ms
    CPU time for solve 7 / 21 on Device 0                                0.00 sec, wall time      0.00 sec, GPU time      2.10 ms
    CPU time for transfer data for 7 / 21 on Device 0                    0.00 sec, wall time      0.00 sec, GPU time      0.07 ms
    CPU time for solve 20 / 21 on Device 0                               0.00 sec, wall time      0.00 sec, GPU time      2.89 ms
    CPU time for transfer data for 20 / 21 on Device 0                   0.00 sec, wall time      0.00 sec, GPU time      0.07 ms
    CPU time for solve 19 / 21 on Device 0                               0.00 sec, wall time      0.00 sec, GPU time      2.68 ms
    CPU time for transfer data for 19 / 21 on Device 0                   0.00 sec, wall time      0.00 sec, GPU time      0.07 ms
    CPU time for solve 15 / 21 on Device 0                               0.00 sec, wall time      0.00 sec, GPU time      2.10 ms
    CPU time for transfer data for 15 / 21 on Device 0                   0.00 sec, wall time      0.00 sec, GPU time      0.07 ms
    CPU time for solve 13 / 21 on Device 0                               0.00 sec, wall time      0.00 sec, GPU time      2.14 ms
    CPU time for transfer data for 13 / 21 on Device 0                   0.00 sec, wall time      0.00 sec, GPU time      0.07 ms
    CPU time for solve 6 / 21 on Device 0                                0.00 sec, wall time      0.00 sec, GPU time      2.04 ms
    CPU time for transfer data for 6 / 21 on Device 0                    0.00 sec, wall time      0.00 sec, GPU time      0.07 ms
    CPU time for solve 9 / 21 on Device 0                                0.00 sec, wall time      0.00 sec, GPU time      2.08 ms
    CPU time for transfer data for 9 / 21 on Device 0                    0.00 sec, wall time      0.00 sec, GPU time      0.07 ms
    CPU time for solve 18 / 21 on Device 0                               0.00 sec, wall time      0.00 sec, GPU time      2.11 ms
    CPU time for transfer data for 18 / 21 on Device 0                   0.00 sec, wall time      0.00 sec, GPU time      0.07 ms
    CPU time for cholesky_eri                                            0.96 sec, wall time      0.08 sec, GPU time     74.99 ms
    CPU time for init jk                                                 1.32 sec, wall time      0.10 sec, GPU time     99.32 ms
38.135 GB memory available on Device 0, block size = 256
    CPU time for vj and vk on Device 0                                   0.00 sec, wall time      0.00 sec, GPU time      4.46 ms
    CPU time for vj and vk                                               0.01 sec, wall time      0.01 sec, GPU time      6.56 ms
    CPU time for veff                                                    1.33 sec, wall time      0.11 sec, GPU time    107.21 ms
E1 = -508.58540143186383  Ecoul = 217.49979986374535  Exc = -26.853885132519896
init E= -192.744079393762
cond(S) = 3059.3393536319677
    CPU time for SCF initialization                                      3.54 sec, wall time      0.24 sec, GPU time    236.93 ms
    CPU time for DIIS                                                    0.00 sec, wall time      0.00 sec, GPU time      0.11 ms
    CPU time for eig                                                     0.00 sec, wall time      0.00 sec, GPU time      2.61 ms
  HOMO = -0.279528591034438  LUMO = 0.0810033228885136  gap = 9.81057 eV
324608 grids on Device 0
0 - 324608 grids are calculated on Device 0.
mem_info: unallocated=39778.69 MB, used=43.53 MB, free=213.47 MB, free_blocks=36
41934.818816 MB memory is available on Device 0, block_size None
    CPU time for eval rho on Device 0                                    0.04 sec, wall time      0.04 sec, GPU time     36.66 ms
    CPU time for eval vxc on Device 0                                    0.00 sec, wall time      0.01 sec, GPU time     11.38 ms
0 - 324608 grids are calculated on Device 0.
mem_info: unallocated=39770.69 MB, used=51.93 MB, free=205.07 MB, free_blocks=34
41917.620736 MB memory is available on Device 0, block_size None
    CPU time for eval integration on 0                                   0.02 sec, wall time      0.02 sec, GPU time     18.55 ms
    CPU time for nr_rks                                                  0.06 sec, wall time      0.07 sec, GPU time     69.29 ms
nelec by numeric integration = 31.99999946948668
    CPU time for vxc                                                     0.06 sec, wall time      0.07 sec, GPU time     69.44 ms
38.134 GB memory available on Device 0, block size = 256
    CPU time for vj and vk on Device 0                                   0.00 sec, wall time      0.00 sec, GPU time      3.16 ms
    CPU time for vj and vk                                               0.01 sec, wall time      0.01 sec, GPU time      6.01 ms
    CPU time for veff                                                    0.01 sec, wall time      0.01 sec, GPU time      7.33 ms
    CPU time for veff                                                    0.07 sec, wall time      0.08 sec, GPU time     78.95 ms
E1 = -508.5426232959768  Ecoul = 217.455633629452  Exc = -26.85166146288276
    CPU time for cycle=1                                                 0.07 sec, wall time      0.08 sec, GPU time     83.92 ms
cycle= 1 E= -192.743243822531  delta_E= 0.000836  |g|= 0.00469  |ddm|= 0.0435
diis-c [-2.20336145e-05  1.00000000e+00]
    CPU time for DIIS                                                    0.00 sec, wall time      0.00 sec, GPU time      1.74 ms
    CPU time for eig                                                     0.00 sec, wall time      0.00 sec, GPU time      3.25 ms
  HOMO = -0.279805144355033  LUMO = 0.0797167104194528  gap = 9.78309 eV
324608 grids on Device 0
0 - 324608 grids are calculated on Device 0.
mem_info: unallocated=39778.69 MB, used=43.64 MB, free=213.36 MB, free_blocks=33
41934.697984 MB memory is available on Device 0, block_size None
    CPU time for eval rho on Device 0                                    0.04 sec, wall time      0.04 sec, GPU time     36.87 ms
    CPU time for eval vxc on Device 0                                    0.00 sec, wall time      0.00 sec, GPU time      0.93 ms
0 - 324608 grids are calculated on Device 0.
mem_info: unallocated=39770.69 MB, used=52.05 MB, free=204.96 MB, free_blocks=33
41917.499904 MB memory is available on Device 0, block_size None
    CPU time for eval integration on 0                                   0.02 sec, wall time      0.02 sec, GPU time     18.62 ms
    CPU time for nr_rks                                                  0.06 sec, wall time      0.06 sec, GPU time     58.79 ms
nelec by numeric integration = 31.99999946880508
    CPU time for vxc                                                     0.06 sec, wall time      0.06 sec, GPU time     58.95 ms
38.134 GB memory available on Device 0, block size = 256
    CPU time for vj and vk on Device 0                                   0.00 sec, wall time      0.00 sec, GPU time      3.15 ms
    CPU time for vj and vk                                               0.01 sec, wall time      0.01 sec, GPU time      6.01 ms
    CPU time for veff                                                    0.01 sec, wall time      0.01 sec, GPU time      7.32 ms
    CPU time for veff                                                    0.07 sec, wall time      0.07 sec, GPU time     68.45 ms
E1 = -508.5425789329974  Ecoul = 217.45527182938798  Exc = -26.851341881047286
    CPU time for cycle=2                                                 0.08 sec, wall time      0.08 sec, GPU time     75.76 ms
cycle= 2 E= -192.74324167778  delta_E= 2.14e-06  |g|= 0.00638  |ddm|= 0.0102
diis-c [-2.38350289e-06  5.82587867e-01  4.17412133e-01]
    CPU time for DIIS                                                    0.00 sec, wall time      0.00 sec, GPU time      2.02 ms
    CPU time for eig                                                     0.00 sec, wall time      0.00 sec, GPU time      3.22 ms
  HOMO = -0.280503182507731  LUMO = 0.0798621728130348  gap = 9.80604 eV
324608 grids on Device 0
0 - 324608 grids are calculated on Device 0.
mem_info: unallocated=39778.69 MB, used=43.70 MB, free=213.30 MB, free_blocks=35
41934.637568 MB memory is available on Device 0, block_size None
    CPU time for eval rho on Device 0                                    0.05 sec, wall time      0.05 sec, GPU time     52.00 ms
    CPU time for eval vxc on Device 0                                    0.00 sec, wall time      0.00 sec, GPU time      0.98 ms
0 - 324608 grids are calculated on Device 0.
mem_info: unallocated=39770.69 MB, used=52.10 MB, free=204.90 MB, free_blocks=34
41917.439488 MB memory is available on Device 0, block_size None
    CPU time for eval integration on 0                                   0.02 sec, wall time      0.02 sec, GPU time     18.81 ms
    CPU time for nr_rks                                                  0.07 sec, wall time      0.07 sec, GPU time     74.23 ms
nelec by numeric integration = 31.999999469045267
    CPU time for vxc                                                     0.07 sec, wall time      0.07 sec, GPU time     74.39 ms
38.134 GB memory available on Device 0, block size = 256
    CPU time for vj and vk on Device 0                                   0.01 sec, wall time      0.01 sec, GPU time      6.44 ms
    CPU time for vj and vk                                               0.01 sec, wall time      0.01 sec, GPU time      9.48 ms
    CPU time for veff                                                    0.01 sec, wall time      0.01 sec, GPU time     10.81 ms
    CPU time for veff                                                    0.09 sec, wall time      0.09 sec, GPU time     87.36 ms
E1 = -508.5482636691432  Ecoul = 217.46199398962918  Exc = -26.852387293074678
    CPU time for cycle=3                                                 0.09 sec, wall time      0.09 sec, GPU time     94.83 ms
cycle= 3 E= -192.743249665712  delta_E= -7.99e-06  |g|= 0.00094  |ddm|= 0.00558
diis-c [-1.97039813e-07  1.37656951e-01  1.60128206e-01  7.02214843e-01]
    CPU time for DIIS                                                    0.00 sec, wall time      0.00 sec, GPU time      2.30 ms
    CPU time for eig                                                     0.00 sec, wall time      0.00 sec, GPU time      3.24 ms
  HOMO = -0.280340193385789  LUMO = 0.079892331515953  gap = 9.80243 eV
324608 grids on Device 0
0 - 324608 grids are calculated on Device 0.
mem_info: unallocated=39778.69 MB, used=43.76 MB, free=213.24 MB, free_blocks=38
41934.577152 MB memory is available on Device 0, block_size None
    CPU time for eval rho on Device 0                                    0.05 sec, wall time      0.05 sec, GPU time     52.50 ms
    CPU time for eval vxc on Device 0                                    0.00 sec, wall time      0.00 sec, GPU time      0.94 ms
0 - 324608 grids are calculated on Device 0.
mem_info: unallocated=39770.69 MB, used=52.16 MB, free=204.84 MB, free_blocks=37
41917.379072 MB memory is available on Device 0, block_size None
    CPU time for eval integration on 0                                   0.02 sec, wall time      0.02 sec, GPU time     18.59 ms
    CPU time for nr_rks                                                  0.07 sec, wall time      0.07 sec, GPU time     74.67 ms
nelec by numeric integration = 31.99999946886149
    CPU time for vxc                                                     0.07 sec, wall time      0.07 sec, GPU time     74.83 ms
38.134 GB memory available on Device 0, block size = 256
    CPU time for vj and vk on Device 0                                   0.00 sec, wall time      0.00 sec, GPU time      3.18 ms
    CPU time for vj and vk                                               0.01 sec, wall time      0.01 sec, GPU time      5.97 ms
    CPU time for veff                                                    0.01 sec, wall time      0.01 sec, GPU time      7.27 ms
    CPU time for veff                                                    0.09 sec, wall time      0.09 sec, GPU time     84.24 ms
E1 = -508.54459730595  Ecoul = 217.45786093441114  Exc = -26.851920756105635
    CPU time for cycle=4                                                 0.09 sec, wall time      0.09 sec, GPU time     91.99 ms
cycle= 4 E= -192.743249820768  delta_E= -1.55e-07  |g|= 0.000295  |ddm|= 0.00105
diis-c [-1.83068780e-08  1.29178915e-02  3.29911610e-02  2.81876905e-01
  6.72214042e-01]
    CPU time for DIIS                                                    0.00 sec, wall time      0.00 sec, GPU time      2.60 ms
    CPU time for eig                                                     0.00 sec, wall time      0.00 sec, GPU time      3.23 ms
  HOMO = -0.280369669604531  LUMO = 0.0798855014141987  gap = 9.80304 eV
324608 grids on Device 0
0 - 324608 grids are calculated on Device 0.
mem_info: unallocated=39778.69 MB, used=43.82 MB, free=213.18 MB, free_blocks=35
41934.516736 MB memory is available on Device 0, block_size None
    CPU time for eval rho on Device 0                                    0.04 sec, wall time      0.04 sec, GPU time     36.33 ms
    CPU time for eval vxc on Device 0                                    0.00 sec, wall time      0.00 sec, GPU time      0.94 ms
0 - 324608 grids are calculated on Device 0.
mem_info: unallocated=39770.69 MB, used=52.22 MB, free=204.78 MB, free_blocks=34
41917.318656 MB memory is available on Device 0, block_size None
    CPU time for eval integration on 0                                   0.02 sec, wall time      0.02 sec, GPU time     18.40 ms
    CPU time for nr_rks                                                  0.06 sec, wall time      0.06 sec, GPU time     58.02 ms
nelec by numeric integration = 31.999999468924432
    CPU time for vxc                                                     0.06 sec, wall time      0.06 sec, GPU time     58.17 ms
38.134 GB memory available on Device 0, block size = 256
    CPU time for vj and vk on Device 0                                   0.01 sec, wall time      0.01 sec, GPU time      6.45 ms
    CPU time for vj and vk                                               0.01 sec, wall time      0.01 sec, GPU time     10.18 ms
    CPU time for veff                                                    0.01 sec, wall time      0.01 sec, GPU time     11.46 ms
    CPU time for veff                                                    0.07 sec, wall time      0.07 sec, GPU time     71.76 ms
E1 = -508.5458651959283  Ecoul = 217.4592608586808  Exc = -26.85205281034009
    CPU time for cycle=5                                                 0.08 sec, wall time      0.08 sec, GPU time     79.77 ms
cycle= 5 E= -192.743249840711  delta_E= -1.99e-08  |g|= 7.61e-05  |ddm|= 0.000321
diis-c [-3.95616462e-10 -9.97309864e-03 -4.55686727e-03  2.50788785e-02
  2.36084884e-01  7.53366203e-01]
    CPU time for DIIS                                                    0.00 sec, wall time      0.00 sec, GPU time      3.04 ms
    CPU time for eig                                                     0.00 sec, wall time      0.00 sec, GPU time      3.24 ms
  HOMO = -0.280366897657959  LUMO = 0.0798877724521637  gap = 9.80303 eV
324608 grids on Device 0
0 - 324608 grids are calculated on Device 0.
mem_info: unallocated=39778.69 MB, used=43.87 MB, free=213.13 MB, free_blocks=35
41934.45632 MB memory is available on Device 0, block_size None
    CPU time for eval rho on Device 0                                    0.05 sec, wall time      0.05 sec, GPU time     51.91 ms
    CPU time for eval vxc on Device 0                                    0.00 sec, wall time      0.00 sec, GPU time      1.11 ms
0 - 324608 grids are calculated on Device 0.
mem_info: unallocated=39770.69 MB, used=52.28 MB, free=204.73 MB, free_blocks=34
41917.25824 MB memory is available on Device 0, block_size None
    CPU time for eval integration on 0                                   0.02 sec, wall time      0.02 sec, GPU time     18.66 ms
    CPU time for nr_rks                                                  0.08 sec, wall time      0.08 sec, GPU time     75.12 ms
nelec by numeric integration = 31.999999468896256
    CPU time for vxc                                                     0.08 sec, wall time      0.08 sec, GPU time     75.29 ms
38.134 GB memory available on Device 0, block size = 256
    CPU time for vj and vk on Device 0                                   0.00 sec, wall time      0.00 sec, GPU time      3.32 ms
    CPU time for vj and vk                                               0.01 sec, wall time      0.01 sec, GPU time      6.25 ms
    CPU time for veff                                                    0.01 sec, wall time      0.01 sec, GPU time      7.57 ms
    CPU time for veff                                                    0.09 sec, wall time      0.09 sec, GPU time     85.09 ms
E1 = -508.5456941598251  Ecoul = 217.45907346655557  Exc = -26.85203645576333
    CPU time for cycle=6                                                 0.09 sec, wall time      0.09 sec, GPU time     93.63 ms
cycle= 6 E= -192.743249842157  delta_E= -1.45e-09  |g|= 9.66e-06  |ddm|= 8.99e-05
diis-c [-2.71237929e-11 -3.06570771e-03 -1.64329275e-03  1.52490417e-03
  5.15010191e-02  2.11802905e-01  7.39880172e-01]
    CPU time for DIIS                                                    0.00 sec, wall time      0.00 sec, GPU time      3.29 ms
    CPU time for eig                                                     0.00 sec, wall time      0.00 sec, GPU time      3.25 ms
  HOMO = -0.280365758361393  LUMO = 0.0798875089811767  gap = 9.80299 eV
324608 grids on Device 0
0 - 324608 grids are calculated on Device 0.
mem_info: unallocated=39778.69 MB, used=43.93 MB, free=213.07 MB, free_blocks=38
41934.395904 MB memory is available on Device 0, block_size None
    CPU time for eval rho on Device 0                                    0.05 sec, wall time      0.05 sec, GPU time     53.11 ms
    CPU time for eval vxc on Device 0                                    0.00 sec, wall time      0.00 sec, GPU time      1.03 ms
0 - 324608 grids are calculated on Device 0.
mem_info: unallocated=39770.69 MB, used=52.33 MB, free=204.67 MB, free_blocks=35
41917.197824 MB memory is available on Device 0, block_size None
    CPU time for eval integration on 0                                   0.02 sec, wall time      0.02 sec, GPU time     18.75 ms
    CPU time for nr_rks                                                  0.08 sec, wall time      0.08 sec, GPU time     75.38 ms
nelec by numeric integration = 31.999999468900885
    CPU time for vxc                                                     0.08 sec, wall time      0.08 sec, GPU time     75.54 ms
38.134 GB memory available on Device 0, block size = 256
    CPU time for vj and vk on Device 0                                   0.01 sec, wall time      0.01 sec, GPU time      6.32 ms
    CPU time for vj and vk                                               0.01 sec, wall time      0.01 sec, GPU time      9.45 ms
    CPU time for veff                                                    0.01 sec, wall time      0.01 sec, GPU time     10.78 ms
    CPU time for veff                                                    0.09 sec, wall time      0.09 sec, GPU time     88.50 ms
E1 = -508.54566951911727  Ecoul = 217.4590470394691  Exc = -26.85203466940869
    CPU time for cycle=7                                                 0.10 sec, wall time      0.10 sec, GPU time     97.25 ms
cycle= 7 E= -192.743249842181  delta_E= -2.4e-11  |g|= 3.5e-06  |ddm|= 1.56e-05
    CPU time for SCF                                                     4.15 sec, wall time      0.86 sec, GPU time    856.09 ms
converged SCF energy = -192.743249842181


******** <class 'gpu4pyscf.grad.rhf.Gradients_Scanner'> for <class 'pyscf.scf.hf.DFRKS_Scanner'> ********
unit = Eh/Bohr
max_memory 4000 MB (current use 1111 MB)
Number of shells for each [l, nctr] group
    [0 1] : 14
    [0 3] : 6
    [0 5] : 4
    [1 1] : 10
    [1 3] : 4
    [2 1] : 4
    CPU time for Initialize q_cond                                       0.00 sec, wall time      0.00 sec, GPU time      2.39 ms
    CPU time for Get AO pairing                                          0.12 sec, wall time      0.00 sec, GPU time      1.93 ms
    CPU time for AO indices                                              0.00 sec, wall time      0.00 sec, GPU time      0.43 ms
    CPU time for Initialize GPU cache                                    0.00 sec, wall time      0.00 sec, GPU time      0.89 ms
    CPU time for gradients of h1e                                        1.44 sec, wall time      0.05 sec, GPU time     50.24 ms
324608 grids on Device 0
0 - 324608 grids are calculated on Device 0.
mem_info: unallocated=39778.69 MB, used=23.91 MB, free=233.10 MB, free_blocks=37
41955.395072 MB memory is available on Device 0, block_size None
    CPU time for gradient of vxc                                         0.19 sec, wall time      0.18 sec, GPU time    179.25 ms
    CPU time for grad vxc                                                0.20 sec, wall time      0.18 sec, GPU time    181.52 ms
    CPU time for vxc total                                               0.20 sec, wall time      0.18 sec, GPU time    181.94 ms
Number of shells for each [l, nprim] group
    [0 5] : 4
    [0 3] : 6
    [0 1] : 14
    [1 3] : 4
    [1 1] : 10
    [2 1] : 4
Number of shells for each [l, nprim] group
    [0 5] : 4
    [0 3] : 6
    [0 1] : 42
    [1 3] : 4
    [1 1] : 40
    [2 3] : 1
    [2 2] : 3
    [2 1] : 27
    [3 2] : 3
    [3 1] : 2
    [4 1] : 4
dm_factor shape (90, 16)
sp_batches = 1, ksh_batches = 11
41.711 GB free memory. nao_pair=4195 naux=480 batch_size=480 blksize=480
    CPU time for contract dm                                             0.03 sec, wall time      0.03 sec, GPU time     34.36 ms
int2c2e_kernel, nimgs = 1
    CPU time for contract int3c2e_ejk_ip1                                0.04 sec, wall time      0.04 sec, GPU time     49.96 ms
int2c2e_kernel, nimgs = 1
    CPU time for contract int2c2e_ip1                                    0.04 sec, wall time      0.04 sec, GPU time     21.49 ms
    CPU time for gradients of veff                                       0.35 sec, wall time      0.33 sec, GPU time    327.76 ms
Computing Gradients of NR-HF Coulomb repulsion
    CPU time for gradients of 2e part                                    0.35 sec, wall time      0.33 sec, GPU time    327.88 ms
    CPU time for gradients of electronic part                            1.80 sec, wall time      0.38 sec, GPU time    378.90 ms
    CPU time for SCF gradients                                           1.80 sec, wall time      0.38 sec, GPU time    379.38 ms
--------------- DFRKS_Scanner gradients ---------------
         x                y                z
0 O     0.0004214660     0.0006138481     0.0001709988
1 C    -0.0016875806     0.0004125355     0.0004986092
2 C     0.0003728752    -0.0002009358    -0.0000760397
3 C     0.0003960655    -0.0003468009    -0.0002262055
4 H     0.0004288094    -0.0001115535    -0.0002245236
5 H    -0.0000866528    -0.0003526811    -0.0004711176
6 H     0.0000802396     0.0001238970     0.0003184992
7 H    -0.0000166786     0.0000451240     0.0001148831
8 H     0.0002537628     0.0000645446    -0.0001324043
9 H    -0.0001618159    -0.0002486255     0.0000304154
----------------------------------------------
cycle 4: E = -192.743249842  dE = -0.000168215  norm(grad) = 0.00229744

Geometry optimization cycle 5
Cartesian coordinates (Angstrom)
 Atom        New coordinates             dX        dY        dZ
   O  -0.800835  -0.734145   0.069446   -0.002216 -0.002438 -0.008617
   C   0.223944   0.072501  -0.472450    0.001412 -0.003885 -0.005489
   C  -0.962460   0.664560   0.148844    0.003686 -0.001396 -0.001240
   C   1.553385   0.038418   0.221436   -0.002452  0.001564  0.001092
   H   0.264121   0.061545  -1.572158    0.000431 -0.001778 -0.004828
   H  -1.760603   1.090280  -0.473465   -0.000949  0.006624  0.010986
   H  -0.881165   1.098673   1.154375    0.009354 -0.008187  0.000331
   H   2.155001   0.923205  -0.038588   -0.002356 -0.000050 -0.003406
   H   2.123026  -0.856289  -0.073289   -0.001589 -0.000515  0.009975
   H   1.417423   0.012001   1.312439   -0.005378  0.010133  0.000827
New geometry
   1 O     -0.800834508887  -0.734144936915   0.069445504437 AA   -1.513357892897  -1.387332866506   0.131232983968 Bohr
   2 C      0.223943813683   0.072501002742  -0.472449655702 AA    0.423192475151   0.137007038938  -0.892800456922 Bohr
   3 C     -0.962459636490   0.664559909882   0.148844040206 AA   -1.818785118914   1.255836223043   0.281274471264 Bohr
   4 C      1.553385320861   0.038418197053   0.221435950819 AA    2.935472822347   0.072599870630   0.418453301180 Bohr
   5 H      0.264120937842   0.061544600490  -1.572157787773 AA    0.499116236284   0.116302439372  -2.970947643493 Bohr
   6 H     -1.760603114308   1.090279992037  -0.473464620949 AA   -3.327057700098   2.060330584042  -0.894718463264 Bohr
   7 H     -0.881165022421   1.098672868690   1.154374811080 AA   -1.665160562921   2.076190822315   2.181452238038 Bohr
   8 H      2.155000990297   0.923205189700  -0.038588346850 AA    4.072361669828   1.744604965311  -0.072921407146 Bohr
   9 H      2.123026110438  -0.856288823332  -0.073288705356 AA    4.011937904028  -1.618151359623  -0.138495581147 Bohr
  10 H      1.417422907650   0.012001033557   1.312438551478 AA    2.678541098143   0.022678666635   2.480149417614 Bohr


******** <class 'pyscf.scf.hf.DFRKS_Scanner'> ********
method = DFRKS_Scanner
initial guess = minao
damping factor = None
level_shift factor = None
DIIS = <class 'gpu4pyscf.scf.diis.CDIIS'>
diis_start_cycle = 1
diis_space = 8
diis_damp = 0
SCF conv_tol = 1e-10
SCF conv_tol_grad = None
SCF max_cycles = 50
direct_scf = False
XC library gpu4pyscf.dft.libxc version 7.0.0 (CUDA)
    unable to decode the reference due to https://github.com/NVIDIA/cuda-python/issues/29
XC functionals = PBE0
radial grids: 
Treutler-Ahlrichs [JCP 102, 346 (1995); DOI:10.1063/1.469408] (M4) radial grids

becke partition: Becke, JCP 88, 2547 (1988); DOI:10.1063/1.454033
pruning grids: <function nwchem_prune at 0x14b55ceca7a0>
grids dens level: 3
symmetrized grids: False
atomic radii adjust function: <function treutler_atomic_radii_adjust at 0x14b55ceca840>
User specified grid scheme (99, 590)
small_rho_cutoff = 0
Set gradient conv threshold to 1e-05
Number of shells for each [l, nprim] group
    [0 5] : 4
    [0 3] : 6
    [0 1] : 14
    [1 3] : 4
    [1 1] : 10
    [2 1] : 4
sp_blocks = 21, ksh_blocks = 1, shm_size = 59512 B
    CPU time for processing contract_int3c2e_auxvec                      0.00 sec, wall time      0.00 sec, GPU time      2.35 ms
Number of shells for each [l, nprim] group
    [0 5] : 4
    [0 3] : 6
    [0 1] : 14
    [1 3] : 4
    [1 1] : 10
    [2 1] : 4
Number of shells for each [l, nprim] group
    [0 5] : 4
    [0 3] : 6
    [0 1] : 14
    [1 3] : 4
    [1 1] : 10
    [2 1] : 4
    CPU time for hcore                                                   1.23 sec, wall time      0.04 sec, GPU time     41.65 ms
atom O rad-grids = 99, ang-grids = [ 50  50  50  50  50  50  50  50  50  50  50  50  50  50  50  50  50  50
  50  50  50  50  50  50  50  50  50  50  50  50  86  86  86  86  86  86
  86  86  86  86  86  86  86 434 434 434 434 434 434 434 434 590 590 590
 590 590 590 590 590 590 590 590 590 590 590 590 590 590 590 590 590 590
 590 590 590 590 590 590 434 434 434 434 434 434 434 434 434 434 434 434
 434 434 434 434 434 434 434 434 434]
atom C rad-grids = 99, ang-grids = [ 50  50  50  50  50  50  50  50  50  50  50  50  50  50  50  50  50  50
  50  50  50  50  50  50  50  50  50  50  50  50  86  86  86  86  86  86
  86  86  86  86  86  86 434 434 434 434 434 434 434 434 434 590 590 590
 590 590 590 590 590 590 590 590 590 590 590 590 590 590 590 590 590 590
 590 590 590 590 590 434 434 434 434 434 434 434 434 434 434 434 434 434
 434 434 434 434 434 434 434 434 434]
atom H rad-grids = 99, ang-grids = [ 50  50  50  50  50  50  50  50  50  50  50  50  50  50  50  50  50  50
  50  50  50  50  50  50  50  50  50  50  50  50  86  86  86  86  86  86
  86 434 434 434 434 434 434 434 434 434 434 590 590 590 590 590 590 590
 590 590 590 590 590 590 590 590 590 590 590 590 590 590 590 590 590 590
 590 590 434 434 434 434 434 434 434 434 434 434 434 434 434 434 434 434
 434 434 434 434 434 434 434 434 434]
    CPU time for generating atomic grids                                 0.11 sec, wall time      0.01 sec, GPU time      6.31 ms
Padding 164 grids
    CPU time for sorting grids                                           0.11 sec, wall time      0.00 sec, GPU time      0.96 ms
tot grids = 324608
    CPU time for setting up grids                                        0.23 sec, wall time      0.01 sec, GPU time      7.37 ms
Number of shells for each [l, nctr] group
    [0 1] : 14
    [0 3] : 6
    [0 5] : 4
    [1 1] : 10
    [1 3] : 4
    [2 1] : 4
324608 grids on Device 0
0 - 324608 grids are calculated on Device 0.
mem_info: unallocated=39778.69 MB, used=30.35 MB, free=226.65 MB, free_blocks=38
41948.634112 MB memory is available on Device 0, block_size None
    CPU time for eval rho on Device 0                                    0.83 sec, wall time      0.04 sec, GPU time     39.67 ms
    CPU time for eval vxc on Device 0                                    0.00 sec, wall time      0.00 sec, GPU time      1.06 ms
0 - 324608 grids are calculated on Device 0.
mem_info: unallocated=39770.69 MB, used=38.77 MB, free=218.23 MB, free_blocks=34
41931.421696 MB memory is available on Device 0, block_size None
    CPU time for eval integration on 0                                   0.02 sec, wall time      0.02 sec, GPU time     18.92 ms
    CPU time for nr_rks                                                  0.86 sec, wall time      0.06 sec, GPU time     62.54 ms
nelec by numeric integration = 32.0002578819053
    CPU time for vxc                                                     1.08 sec, wall time      0.07 sec, GPU time     70.03 ms
Build CDERI ...
Psi4 predefined JKFIT basis set def2-svp-jkfit for HF
Default auxbasis def2-svp-jkfit is applied universally
num shells = 136, num cGTOs = 410
    CPU time for 2c2e                                                    0.01 sec, wall time      0.01 sec, GPU time     12.40 ms
Number of shells for each [l, nctr] group
    [0 1] : 14
    [0 3] : 6
    [0 5] : 4
    [1 1] : 10
    [1 3] : 4
    [2 1] : 4
Number of shells for each [l, nctr] group
    [0 1] : 42
    [0 3] : 6
    [0 5] : 4
    [1 1] : 40
    [1 3] : 4
    [2 1] : 27
    [2 2] : 3
    [2 3] : 1
    [3 1] : 2
    [3 2] : 3
    [4 1] : 4
    CPU time for Initialize q_cond                                       0.13 sec, wall time      0.00 sec, GPU time      2.65 ms
    CPU time for Get AO pairing                                          0.00 sec, wall time      0.00 sec, GPU time      0.58 ms
    CPU time for AO indices                                              0.00 sec, wall time      0.00 sec, GPU time      0.19 ms
    CPU time for Aux AO indices                                          0.00 sec, wall time      0.00 sec, GPU time      0.37 ms
    CPU time for Get AO pairs                                            0.00 sec, wall time      0.00 sec, GPU time      0.83 ms
    CPU time for prepare intopt                                          0.29 sec, wall time      0.01 sec, GPU time      8.28 ms
size of aux basis 410
Saving CDERI on GPU
CDERI size 0.011 GB on Device 0
    CPU time for Initialize GPU cache on Device 0                        0.00 sec, wall time      0.00 sec, GPU time      0.27 ms
    CPU time for solve 5 / 21 on Device 0                                0.12 sec, wall time      0.00 sec, GPU time      3.45 ms
    CPU time for transfer data for 5 / 21 on Device 0                    0.00 sec, wall time      0.00 sec, GPU time      0.08 ms
    CPU time for solve 2 / 21 on Device 0                                0.00 sec, wall time      0.00 sec, GPU time      2.25 ms
    CPU time for transfer data for 2 / 21 on Device 0                    0.00 sec, wall time      0.00 sec, GPU time      0.07 ms
    CPU time for solve 4 / 21 on Device 0                                0.10 sec, wall time      0.00 sec, GPU time      2.39 ms
    CPU time for transfer data for 4 / 21 on Device 0                    0.00 sec, wall time      0.00 sec, GPU time      0.07 ms
    CPU time for solve 12 / 21 on Device 0                               0.03 sec, wall time      0.00 sec, GPU time      3.09 ms
    CPU time for transfer data for 12 / 21 on Device 0                   0.00 sec, wall time      0.00 sec, GPU time      0.07 ms
    CPU time for solve 3 / 21 on Device 0                                0.00 sec, wall time      0.00 sec, GPU time      2.10 ms
    CPU time for transfer data for 3 / 21 on Device 0                    0.00 sec, wall time      0.00 sec, GPU time      0.07 ms
    CPU time for solve 11 / 21 on Device 0                               0.00 sec, wall time      0.00 sec, GPU time      2.30 ms
    CPU time for transfer data for 11 / 21 on Device 0                   0.00 sec, wall time      0.00 sec, GPU time      0.07 ms
    CPU time for solve 14 / 21 on Device 0                               0.00 sec, wall time      0.00 sec, GPU time      3.04 ms
    CPU time for transfer data for 14 / 21 on Device 0                   0.00 sec, wall time      0.00 sec, GPU time      0.07 ms
    CPU time for solve 17 / 21 on Device 0                               0.00 sec, wall time      0.00 sec, GPU time      2.21 ms
    CPU time for transfer data for 17 / 21 on Device 0                   0.00 sec, wall time      0.00 sec, GPU time      0.07 ms
    CPU time for solve 1 / 21 on Device 0                                0.00 sec, wall time      0.00 sec, GPU time      2.08 ms
    CPU time for transfer data for 1 / 21 on Device 0                    0.00 sec, wall time      0.00 sec, GPU time      0.07 ms
    CPU time for solve 0 / 21 on Device 0                                0.00 sec, wall time      0.00 sec, GPU time      2.03 ms
    CPU time for transfer data for 0 / 21 on Device 0                    0.00 sec, wall time      0.00 sec, GPU time      0.07 ms
    CPU time for solve 16 / 21 on Device 0                               0.00 sec, wall time      0.00 sec, GPU time      2.16 ms
    CPU time for transfer data for 16 / 21 on Device 0                   0.00 sec, wall time      0.00 sec, GPU time      0.07 ms
    CPU time for solve 8 / 21 on Device 0                                0.00 sec, wall time      0.00 sec, GPU time      2.14 ms
    CPU time for transfer data for 8 / 21 on Device 0                    0.00 sec, wall time      0.00 sec, GPU time      0.07 ms
    CPU time for solve 10 / 21 on Device 0                               0.00 sec, wall time      0.00 sec, GPU time      2.09 ms
    CPU time for transfer data for 10 / 21 on Device 0                   0.00 sec, wall time      0.00 sec, GPU time      0.07 ms
    CPU time for solve 7 / 21 on Device 0                                0.00 sec, wall time      0.00 sec, GPU time      2.09 ms
    CPU time for transfer data for 7 / 21 on Device 0                    0.00 sec, wall time      0.00 sec, GPU time      0.07 ms
    CPU time for solve 20 / 21 on Device 0                               0.00 sec, wall time      0.00 sec, GPU time      2.75 ms
    CPU time for transfer data for 20 / 21 on Device 0                   0.00 sec, wall time      0.00 sec, GPU time      0.07 ms
    CPU time for solve 19 / 21 on Device 0                               0.00 sec, wall time      0.00 sec, GPU time      2.18 ms
    CPU time for transfer data for 19 / 21 on Device 0                   0.00 sec, wall time      0.00 sec, GPU time      0.07 ms
    CPU time for solve 15 / 21 on Device 0                               0.00 sec, wall time      0.00 sec, GPU time      2.26 ms
    CPU time for transfer data for 15 / 21 on Device 0                   0.00 sec, wall time      0.00 sec, GPU time      0.07 ms
    CPU time for solve 13 / 21 on Device 0                               0.00 sec, wall time      0.00 sec, GPU time      2.17 ms
    CPU time for transfer data for 13 / 21 on Device 0                   0.00 sec, wall time      0.00 sec, GPU time      0.07 ms
    CPU time for solve 6 / 21 on Device 0                                0.00 sec, wall time      0.00 sec, GPU time      2.06 ms
    CPU time for transfer data for 6 / 21 on Device 0                    0.00 sec, wall time      0.00 sec, GPU time      0.07 ms
    CPU time for solve 9 / 21 on Device 0                                0.00 sec, wall time      0.00 sec, GPU time      2.10 ms
    CPU time for transfer data for 9 / 21 on Device 0                    0.00 sec, wall time      0.00 sec, GPU time      0.07 ms
    CPU time for solve 18 / 21 on Device 0                               0.00 sec, wall time      0.00 sec, GPU time      2.13 ms
    CPU time for transfer data for 18 / 21 on Device 0                   0.00 sec, wall time      0.00 sec, GPU time      0.07 ms
    CPU time for cholesky_eri                                            0.59 sec, wall time      0.06 sec, GPU time     60.67 ms
    CPU time for init jk                                                 0.60 sec, wall time      0.07 sec, GPU time     73.19 ms
38.135 GB memory available on Device 0, block size = 256
    CPU time for vj and vk on Device 0                                   0.00 sec, wall time      0.00 sec, GPU time      2.82 ms
    CPU time for vj and vk                                               0.00 sec, wall time      0.00 sec, GPU time      4.44 ms
    CPU time for veff                                                    0.61 sec, wall time      0.08 sec, GPU time     78.30 ms
E1 = -508.5553844094476  Ecoul = 217.46277269043537  Exc = -26.85213354330263
init E= -192.742842457978
cond(S) = 3059.4399419154206
    CPU time for SCF initialization                                      2.92 sec, wall time      0.19 sec, GPU time    193.34 ms
    CPU time for DIIS                                                    0.00 sec, wall time      0.00 sec, GPU time      0.05 ms
    CPU time for eig                                                     0.00 sec, wall time      0.00 sec, GPU time      2.50 ms
  HOMO = -0.280664730322235  LUMO = 0.080102630197239  gap = 9.81698 eV
324608 grids on Device 0
0 - 324608 grids are calculated on Device 0.
mem_info: unallocated=39778.69 MB, used=43.53 MB, free=213.47 MB, free_blocks=32
41934.818816 MB memory is available on Device 0, block_size None
    CPU time for eval rho on Device 0                                    0.05 sec, wall time      0.05 sec, GPU time     49.02 ms
    CPU time for eval vxc on Device 0                                    0.00 sec, wall time      0.00 sec, GPU time      1.00 ms
0 - 324608 grids are calculated on Device 0.
mem_info: unallocated=39770.69 MB, used=51.93 MB, free=205.07 MB, free_blocks=33
41917.620736 MB memory is available on Device 0, block_size None
    CPU time for eval integration on 0                                   0.02 sec, wall time      0.02 sec, GPU time     18.46 ms
    CPU time for nr_rks                                                  0.07 sec, wall time      0.07 sec, GPU time     70.71 ms
nelec by numeric integration = 31.99999912628912
    CPU time for vxc                                                     0.07 sec, wall time      0.07 sec, GPU time     70.89 ms
38.134 GB memory available on Device 0, block size = 256
    CPU time for vj and vk on Device 0                                   0.00 sec, wall time      0.00 sec, GPU time      3.16 ms
    CPU time for vj and vk                                               0.01 sec, wall time      0.01 sec, GPU time      5.96 ms
    CPU time for veff                                                    0.01 sec, wall time      0.01 sec, GPU time      7.59 ms
    CPU time for veff                                                    0.08 sec, wall time      0.08 sec, GPU time     80.23 ms
E1 = -508.5647168480322  Ecoul = 217.47226743440876  Exc = -26.852713645253605
    CPU time for cycle=1                                                 0.09 sec, wall time      0.09 sec, GPU time     85.08 ms
cycle= 1 E= -192.74326025454  delta_E= -0.000418  |g|= 0.00229  |ddm|= 0.0232
diis-c [-5.22341393e-06  1.00000000e+00]
    CPU time for DIIS                                                    0.00 sec, wall time      0.00 sec, GPU time      1.74 ms
    CPU time for eig                                                     0.00 sec, wall time      0.00 sec, GPU time      3.25 ms
  HOMO = -0.280164850778891  LUMO = 0.080072989590938  gap = 9.80257 eV
324608 grids on Device 0
0 - 324608 grids are calculated on Device 0.
mem_info: unallocated=39778.69 MB, used=43.64 MB, free=213.36 MB, free_blocks=32
41934.697984 MB memory is available on Device 0, block_size None
    CPU time for eval rho on Device 0                                    0.04 sec, wall time      0.04 sec, GPU time     36.41 ms
    CPU time for eval vxc on Device 0                                    0.00 sec, wall time      0.00 sec, GPU time      0.94 ms
0 - 324608 grids are calculated on Device 0.
mem_info: unallocated=39770.69 MB, used=52.05 MB, free=204.96 MB, free_blocks=30
41917.499904 MB memory is available on Device 0, block_size None
    CPU time for eval integration on 0                                   0.02 sec, wall time      0.02 sec, GPU time     18.42 ms
    CPU time for nr_rks                                                  0.06 sec, wall time      0.06 sec, GPU time     58.15 ms
nelec by numeric integration = 31.999999128035398
    CPU time for vxc                                                     0.06 sec, wall time      0.06 sec, GPU time     58.31 ms
38.134 GB memory available on Device 0, block size = 256
    CPU time for vj and vk on Device 0                                   0.00 sec, wall time      0.00 sec, GPU time      3.13 ms
    CPU time for vj and vk                                               0.01 sec, wall time      0.01 sec, GPU time      5.93 ms
    CPU time for veff                                                    0.01 sec, wall time      0.01 sec, GPU time      7.24 ms
    CPU time for veff                                                    0.07 sec, wall time      0.07 sec, GPU time     67.72 ms
E1 = -508.55242088042155  Ecoul = 217.45892266350273  Exc = -26.85166530888003
    CPU time for cycle=2                                                 0.08 sec, wall time      0.07 sec, GPU time     74.96 ms
cycle= 2 E= -192.743260721462  delta_E= -4.67e-07  |g|= 0.00227  |ddm|= 0.00536
diis-c [-6.29554396e-07  4.97674781e-01  5.02325219e-01]
    CPU time for DIIS                                                    0.00 sec, wall time      0.00 sec, GPU time      1.98 ms
    CPU time for eig                                                     0.00 sec, wall time      0.00 sec, GPU time      3.23 ms
  HOMO = -0.280521487781959  LUMO = 0.0800805643749905  gap = 9.81248 eV
324608 grids on Device 0
0 - 324608 grids are calculated on Device 0.
mem_info: unallocated=39778.69 MB, used=43.70 MB, free=213.30 MB, free_blocks=32
41934.637568 MB memory is available on Device 0, block_size None
    CPU time for eval rho on Device 0                                    0.05 sec, wall time      0.05 sec, GPU time     52.73 ms
    CPU time for eval vxc on Device 0                                    0.00 sec, wall time      0.00 sec, GPU time      1.14 ms
0 - 324608 grids are calculated on Device 0.
mem_info: unallocated=39770.69 MB, used=52.10 MB, free=204.90 MB, free_blocks=31
41917.439488 MB memory is available on Device 0, block_size None
    CPU time for eval integration on 0                                   0.02 sec, wall time      0.02 sec, GPU time     19.40 ms
    CPU time for nr_rks                                                  0.08 sec, wall time      0.08 sec, GPU time     76.23 ms
nelec by numeric integration = 31.999999127416082
    CPU time for vxc                                                     0.08 sec, wall time      0.08 sec, GPU time     76.42 ms
38.134 GB memory available on Device 0, block size = 256
    CPU time for vj and vk on Device 0                                   0.01 sec, wall time      0.01 sec, GPU time      6.64 ms
    CPU time for vj and vk                                               0.01 sec, wall time      0.01 sec, GPU time      9.77 ms
    CPU time for veff                                                    0.01 sec, wall time      0.01 sec, GPU time     11.10 ms
    CPU time for veff                                                    0.09 sec, wall time      0.09 sec, GPU time     89.71 ms
E1 = -508.5598103328482  Ecoul = 217.46705649136965  Exc = -26.85241081670969
    CPU time for cycle=3                                                 0.10 sec, wall time      0.10 sec, GPU time     97.16 ms
cycle= 3 E= -192.743261853852  delta_E= -1.13e-06  |g|= 0.000512  |ddm|= 0.00265
diis-c [-6.92790004e-08  8.63004657e-02  1.96646910e-01  7.17052624e-01]
    CPU time for DIIS                                                    0.00 sec, wall time      0.00 sec, GPU time      2.34 ms
    CPU time for eig                                                     0.00 sec, wall time      0.00 sec, GPU time      3.22 ms
  HOMO = -0.280452250161846  LUMO = 0.080073437388831  gap = 9.81040 eV
324608 grids on Device 0
0 - 324608 grids are calculated on Device 0.
mem_info: unallocated=39778.69 MB, used=43.76 MB, free=213.24 MB, free_blocks=32
41934.577152 MB memory is available on Device 0, block_size None
    CPU time for eval rho on Device 0                                    0.05 sec, wall time      0.05 sec, GPU time     53.18 ms
    CPU time for eval vxc on Device 0                                    0.00 sec, wall time      0.00 sec, GPU time      1.15 ms
0 - 324608 grids are calculated on Device 0.
mem_info: unallocated=39770.69 MB, used=52.16 MB, free=204.84 MB, free_blocks=31
41917.379072 MB memory is available on Device 0, block_size None
    CPU time for eval integration on 0                                   0.02 sec, wall time      0.02 sec, GPU time     18.63 ms
    CPU time for nr_rks                                                  0.08 sec, wall time      0.08 sec, GPU time     75.34 ms
nelec by numeric integration = 31.999999127394872
    CPU time for vxc                                                     0.08 sec, wall time      0.08 sec, GPU time     75.49 ms
38.134 GB memory available on Device 0, block size = 256
    CPU time for vj and vk on Device 0                                   0.01 sec, wall time      0.01 sec, GPU time      6.51 ms
    CPU time for vj and vk                                               0.01 sec, wall time      0.01 sec, GPU time      9.62 ms
    CPU time for veff                                                    0.01 sec, wall time      0.01 sec, GPU time     11.11 ms
    CPU time for veff                                                    0.09 sec, wall time      0.09 sec, GPU time     88.84 ms
E1 = -508.5593786519696  Ecoul = 217.46649876188565  Exc = -26.852284807055952
    CPU time for cycle=4                                                 0.10 sec, wall time      0.10 sec, GPU time     96.59 ms
cycle= 4 E= -192.743261892803  delta_E= -3.9e-08  |g|= 0.000272  |ddm|= 0.000586
diis-c [-5.07700108e-09 -1.04662918e-02  5.20568898e-02  4.07716315e-01
  5.50693087e-01]
    CPU time for DIIS                                                    0.00 sec, wall time      0.00 sec, GPU time      2.62 ms
    CPU time for eig                                                     0.00 sec, wall time      0.00 sec, GPU time      3.20 ms
  HOMO = -0.280465936349189  LUMO = 0.0800793642403239  gap = 9.81094 eV
324608 grids on Device 0
0 - 324608 grids are calculated on Device 0.
mem_info: unallocated=39778.69 MB, used=43.82 MB, free=213.18 MB, free_blocks=31
41934.516736 MB memory is available on Device 0, block_size None
    CPU time for eval rho on Device 0                                    0.04 sec, wall time      0.04 sec, GPU time     37.05 ms
    CPU time for eval vxc on Device 0                                    0.00 sec, wall time      0.00 sec, GPU time      0.93 ms
0 - 324608 grids are calculated on Device 0.
mem_info: unallocated=39770.69 MB, used=52.22 MB, free=204.78 MB, free_blocks=31
41917.318656 MB memory is available on Device 0, block_size None
    CPU time for eval integration on 0                                   0.02 sec, wall time      0.02 sec, GPU time     18.96 ms
    CPU time for nr_rks                                                  0.06 sec, wall time      0.06 sec, GPU time     59.26 ms
nelec by numeric integration = 31.999999127486685
    CPU time for vxc                                                     0.06 sec, wall time      0.06 sec, GPU time     59.41 ms
38.134 GB memory available on Device 0, block size = 256
    CPU time for vj and vk on Device 0                                   0.00 sec, wall time      0.00 sec, GPU time      3.11 ms
    CPU time for vj and vk                                               0.01 sec, wall time      0.01 sec, GPU time      5.93 ms
    CPU time for veff                                                    0.01 sec, wall time      0.01 sec, GPU time      7.21 ms
    CPU time for veff                                                    0.07 sec, wall time      0.07 sec, GPU time     68.85 ms
E1 = -508.5592072143421  Ecoul = 217.46634632213636  Exc = -26.852303819476784
    CPU time for cycle=5                                                 0.08 sec, wall time      0.08 sec, GPU time     76.93 ms
cycle= 5 E= -192.743261907346  delta_E= -1.45e-08  |g|= 4.98e-05  |ddm|= 0.000236
diis-c [-2.65853655e-10 -1.08384094e-02  6.37273776e-03  1.07840402e-01
  2.29207724e-01  6.67417546e-01]
    CPU time for DIIS                                                    0.00 sec, wall time      0.00 sec, GPU time      2.92 ms
    CPU time for eig                                                     0.00 sec, wall time      0.00 sec, GPU time      3.21 ms
  HOMO = -0.280461290892911  LUMO = 0.080079474140354  gap = 9.81081 eV
324608 grids on Device 0
0 - 324608 grids are calculated on Device 0.
mem_info: unallocated=39778.69 MB, used=43.87 MB, free=213.13 MB, free_blocks=33
41934.45632 MB memory is available on Device 0, block_size None
    CPU time for eval rho on Device 0                                    0.04 sec, wall time      0.04 sec, GPU time     36.12 ms
    CPU time for eval vxc on Device 0                                    0.00 sec, wall time      0.00 sec, GPU time      0.92 ms
0 - 324608 grids are calculated on Device 0.
mem_info: unallocated=39770.69 MB, used=52.28 MB, free=204.73 MB, free_blocks=32
41917.25824 MB memory is available on Device 0, block_size None
    CPU time for eval integration on 0                                   0.02 sec, wall time      0.02 sec, GPU time     18.27 ms
    CPU time for nr_rks                                                  0.06 sec, wall time      0.06 sec, GPU time     57.60 ms
nelec by numeric integration = 31.99999912747024
    CPU time for vxc                                                     0.06 sec, wall time      0.06 sec, GPU time     57.75 ms
38.134 GB memory available on Device 0, block size = 256
    CPU time for vj and vk on Device 0                                   0.01 sec, wall time      0.01 sec, GPU time      6.42 ms
    CPU time for vj and vk                                               0.01 sec, wall time      0.01 sec, GPU time      9.54 ms
    CPU time for veff                                                    0.01 sec, wall time      0.01 sec, GPU time     10.84 ms
    CPU time for veff                                                    0.07 sec, wall time      0.07 sec, GPU time     70.75 ms
E1 = -508.55907415420927  Ecoul = 217.46620116916924  Exc = -26.85229172715549
    CPU time for cycle=6                                                 0.08 sec, wall time      0.08 sec, GPU time     79.09 ms
cycle= 6 E= -192.743261907859  delta_E= -5.13e-10  |g|= 1.43e-05  |ddm|= 5.28e-05
diis-c [-1.53918208e-11 -4.75647155e-03  3.65004888e-04  2.97912293e-02
  8.25041992e-02  3.24759528e-01  5.67336510e-01]
    CPU time for DIIS                                                    0.00 sec, wall time      0.00 sec, GPU time      3.23 ms
    CPU time for eig                                                     0.00 sec, wall time      0.00 sec, GPU time      3.21 ms
  HOMO = -0.28046332165822  LUMO = 0.0800789785856428  gap = 9.81086 eV
324608 grids on Device 0
0 - 324608 grids are calculated on Device 0.
mem_info: unallocated=39778.69 MB, used=43.93 MB, free=213.07 MB, free_blocks=35
41934.395904 MB memory is available on Device 0, block_size None
    CPU time for eval rho on Device 0                                    0.04 sec, wall time      0.04 sec, GPU time     37.26 ms
    CPU time for eval vxc on Device 0                                    0.00 sec, wall time      0.00 sec, GPU time      0.94 ms
0 - 324608 grids are calculated on Device 0.
mem_info: unallocated=39770.69 MB, used=52.33 MB, free=204.67 MB, free_blocks=34
41917.197824 MB memory is available on Device 0, block_size None
    CPU time for eval integration on 0                                   0.02 sec, wall time      0.02 sec, GPU time     18.39 ms
    CPU time for nr_rks                                                  0.06 sec, wall time      0.06 sec, GPU time     58.89 ms
nelec by numeric integration = 31.999999127474446
    CPU time for vxc                                                     0.06 sec, wall time      0.06 sec, GPU time     59.04 ms
38.134 GB memory available on Device 0, block size = 256
    CPU time for vj and vk on Device 0                                   0.00 sec, wall time      0.00 sec, GPU time      3.22 ms
    CPU time for vj and vk                                               0.01 sec, wall time      0.01 sec, GPU time      6.02 ms
    CPU time for veff                                                    0.01 sec, wall time      0.01 sec, GPU time      7.31 ms
    CPU time for veff                                                    0.07 sec, wall time      0.07 sec, GPU time     68.52 ms
E1 = -508.55915462328954  Ecoul = 217.4662877303768  Exc = -26.852297819332165
    CPU time for cycle=7                                                 0.08 sec, wall time      0.08 sec, GPU time     77.21 ms
cycle= 7 E= -192.743261907908  delta_E= -4.95e-11  |g|= 2.04e-06  |ddm|= 1.66e-05
    CPU time for SCF                                                     3.51 sec, wall time      0.78 sec, GPU time    782.25 ms
converged SCF energy = -192.743261907908


******** <class 'gpu4pyscf.grad.rhf.Gradients_Scanner'> for <class 'pyscf.scf.hf.DFRKS_Scanner'> ********
unit = Eh/Bohr
max_memory 4000 MB (current use 1111 MB)
Number of shells for each [l, nctr] group
    [0 1] : 14
    [0 3] : 6
    [0 5] : 4
    [1 1] : 10
    [1 3] : 4
    [2 1] : 4
    CPU time for Initialize q_cond                                       0.00 sec, wall time      0.00 sec, GPU time      2.43 ms
    CPU time for Get AO pairing                                          0.13 sec, wall time      0.00 sec, GPU time      1.93 ms
    CPU time for AO indices                                              0.00 sec, wall time      0.00 sec, GPU time      0.42 ms
    CPU time for Initialize GPU cache                                    0.00 sec, wall time      0.00 sec, GPU time      0.88 ms
    CPU time for gradients of h1e                                        0.85 sec, wall time      0.03 sec, GPU time     31.91 ms
324608 grids on Device 0
0 - 324608 grids are calculated on Device 0.
mem_info: unallocated=39778.69 MB, used=23.91 MB, free=233.10 MB, free_blocks=37
41955.395072 MB memory is available on Device 0, block_size None
    CPU time for gradient of vxc                                         0.28 sec, wall time      0.17 sec, GPU time    171.56 ms
    CPU time for grad vxc                                                0.28 sec, wall time      0.17 sec, GPU time    173.53 ms
    CPU time for vxc total                                               0.29 sec, wall time      0.17 sec, GPU time    173.97 ms
Number of shells for each [l, nprim] group
    [0 5] : 4
    [0 3] : 6
    [0 1] : 14
    [1 3] : 4
    [1 1] : 10
    [2 1] : 4
Number of shells for each [l, nprim] group
    [0 5] : 4
    [0 3] : 6
    [0 1] : 42
    [1 3] : 4
    [1 1] : 40
    [2 3] : 1
    [2 2] : 3
    [2 1] : 27
    [3 2] : 3
    [3 1] : 2
    [4 1] : 4
dm_factor shape (90, 16)
sp_batches = 1, ksh_batches = 11
41.711 GB free memory. nao_pair=4195 naux=480 batch_size=480 blksize=480
    CPU time for contract dm                                             0.03 sec, wall time      0.03 sec, GPU time     34.94 ms
int2c2e_kernel, nimgs = 1
    CPU time for contract int3c2e_ejk_ip1                                0.04 sec, wall time      0.04 sec, GPU time     50.08 ms
int2c2e_kernel, nimgs = 1
    CPU time for contract int2c2e_ip1                                    0.04 sec, wall time      0.04 sec, GPU time     21.64 ms
    CPU time for gradients of veff                                       0.43 sec, wall time      0.32 sec, GPU time    320.81 ms
Computing Gradients of NR-HF Coulomb repulsion
    CPU time for gradients of 2e part                                    0.43 sec, wall time      0.32 sec, GPU time    320.92 ms
    CPU time for gradients of electronic part                            1.29 sec, wall time      0.35 sec, GPU time    353.62 ms
    CPU time for SCF gradients                                           1.29 sec, wall time      0.35 sec, GPU time    354.07 ms
--------------- DFRKS_Scanner gradients ---------------
         x                y                z
0 O    -0.0000782181     0.0000783503    -0.0001106453
1 C     0.0001041233    -0.0006667101    -0.0005900944
2 C     0.0004323723     0.0006580994     0.0001638805
3 C    -0.0000353871     0.0003545806     0.0002982192
4 H     0.0000365676    -0.0001891289     0.0000746601
5 H    -0.0001769424    -0.0001438801     0.0004217853
6 H    -0.0001323966    -0.0000534198    -0.0003185355
7 H    -0.0001046034    -0.0000150253     0.0001744305
8 H    -0.0000913972     0.0001560620    -0.0001354746
9 H     0.0000459283    -0.0001797776     0.0000252391
----------------------------------------------
cycle 5: E = -192.743261908  dE = -1.20657e-05  norm(grad) = 0.00148763

Geometry optimization cycle 6
Cartesian coordinates (Angstrom)
 Atom        New coordinates             dX        dY        dZ
   O  -0.800673  -0.734599   0.069326    0.000162 -0.000454 -0.000120
   C   0.224102   0.074240  -0.469950    0.000158  0.001739  0.002500
   C  -0.964642   0.663514   0.149568   -0.002182 -0.001046  0.000724
   C   1.554674   0.038022   0.221025    0.001289 -0.000396 -0.000411
   H   0.262906   0.065272  -1.569763   -0.001215  0.003727  0.002394
   H  -1.758317   1.090881  -0.477576    0.002286  0.000601 -0.004112
   H  -0.886958   1.096466   1.156115   -0.005793 -0.002207  0.001740
   H   2.157672   0.920991  -0.042453    0.002671 -0.002214 -0.003864
   H   2.122016  -0.858707  -0.072459   -0.001010 -0.002418  0.000829
   H   1.421033   0.014756   1.312364    0.003610  0.002755 -0.000074
New geometry
   1 O     -0.800672754379  -0.734598939179   0.069325700997 AA   -1.513052221177  -1.388190806445   0.131006588277 Bohr
   2 C      0.224101762847   0.074240366503  -0.469950074074 AA    0.423490955813   0.140293960079  -0.888076932218 Bohr
   3 C     -0.964641544423   0.663513592150   0.149568096424 AA   -1.822908327336   1.253858969090   0.282642739214 Bohr
   4 C      1.554673923115   0.038021733033   0.221025132930 AA    2.937907927691   0.071850662213   0.417676967883 Bohr
   5 H      0.262905595749   0.065271667382  -1.569763441223 AA    0.496819572582   0.123345575046  -2.966422984266 Bohr
   6 H     -1.758316958045   1.090880893343  -0.477576393379 AA   -3.322737490883   2.061466122940  -0.902488587043 Bohr
   7 H     -0.886957618832   1.096465895418   1.156115221633 AA   -1.676106983689   2.072020247266   2.184741137328 Bohr
   8 H      2.157672389645   0.920990868015  -0.042452666742 AA    4.077409882966   1.740420503774  -0.080223913399 Bohr
   9 H      2.122016337563  -0.858707035648  -0.072459372004 AA    4.010029709847  -1.622721118612  -0.136928368245 Bohr
  10 H      1.421033070165   0.014755658397   1.312364345506 AA    2.685363316562   0.027884153159   2.480009188651 Bohr


******** <class 'pyscf.scf.hf.DFRKS_Scanner'> ********
method = DFRKS_Scanner
initial guess = minao
damping factor = None
level_shift factor = None
DIIS = <class 'gpu4pyscf.scf.diis.CDIIS'>
diis_start_cycle = 1
diis_space = 8
diis_damp = 0
SCF conv_tol = 1e-10
SCF conv_tol_grad = None
SCF max_cycles = 50
direct_scf = False
XC library gpu4pyscf.dft.libxc version 7.0.0 (CUDA)
    unable to decode the reference due to https://github.com/NVIDIA/cuda-python/issues/29
XC functionals = PBE0
radial grids: 
Treutler-Ahlrichs [JCP 102, 346 (1995); DOI:10.1063/1.469408] (M4) radial grids

becke partition: Becke, JCP 88, 2547 (1988); DOI:10.1063/1.454033
pruning grids: <function nwchem_prune at 0x14b55ceca7a0>
grids dens level: 3
symmetrized grids: False
atomic radii adjust function: <function treutler_atomic_radii_adjust at 0x14b55ceca840>
User specified grid scheme (99, 590)
small_rho_cutoff = 0
Set gradient conv threshold to 1e-05
Number of shells for each [l, nprim] group
    [0 5] : 4
    [0 3] : 6
    [0 1] : 14
    [1 3] : 4
    [1 1] : 10
    [2 1] : 4
sp_blocks = 21, ksh_blocks = 1, shm_size = 59512 B
    CPU time for processing contract_int3c2e_auxvec                      0.00 sec, wall time      0.00 sec, GPU time      2.33 ms
Number of shells for each [l, nprim] group
    [0 5] : 4
    [0 3] : 6
    [0 1] : 14
    [1 3] : 4
    [1 1] : 10
    [2 1] : 4
Number of shells for each [l, nprim] group
    [0 5] : 4
    [0 3] : 6
    [0 1] : 14
    [1 3] : 4
    [1 1] : 10
    [2 1] : 4
    CPU time for hcore                                                   1.20 sec, wall time      0.04 sec, GPU time     41.53 ms
atom O rad-grids = 99, ang-grids = [ 50  50  50  50  50  50  50  50  50  50  50  50  50  50  50  50  50  50
  50  50  50  50  50  50  50  50  50  50  50  50  86  86  86  86  86  86
  86  86  86  86  86  86  86 434 434 434 434 434 434 434 434 590 590 590
 590 590 590 590 590 590 590 590 590 590 590 590 590 590 590 590 590 590
 590 590 590 590 590 590 434 434 434 434 434 434 434 434 434 434 434 434
 434 434 434 434 434 434 434 434 434]
atom C rad-grids = 99, ang-grids = [ 50  50  50  50  50  50  50  50  50  50  50  50  50  50  50  50  50  50
  50  50  50  50  50  50  50  50  50  50  50  50  86  86  86  86  86  86
  86  86  86  86  86  86 434 434 434 434 434 434 434 434 434 590 590 590
 590 590 590 590 590 590 590 590 590 590 590 590 590 590 590 590 590 590
 590 590 590 590 590 434 434 434 434 434 434 434 434 434 434 434 434 434
 434 434 434 434 434 434 434 434 434]
atom H rad-grids = 99, ang-grids = [ 50  50  50  50  50  50  50  50  50  50  50  50  50  50  50  50  50  50
  50  50  50  50  50  50  50  50  50  50  50  50  86  86  86  86  86  86
  86 434 434 434 434 434 434 434 434 434 434 590 590 590 590 590 590 590
 590 590 590 590 590 590 590 590 590 590 590 590 590 590 590 590 590 590
 590 590 434 434 434 434 434 434 434 434 434 434 434 434 434 434 434 434
 434 434 434 434 434 434 434 434 434]
    CPU time for generating atomic grids                                 0.24 sec, wall time      0.01 sec, GPU time      6.22 ms
Padding 164 grids
    CPU time for sorting grids                                           0.00 sec, wall time      0.00 sec, GPU time      0.93 ms
tot grids = 324608
    CPU time for setting up grids                                        0.24 sec, wall time      0.01 sec, GPU time      7.25 ms
Number of shells for each [l, nctr] group
    [0 1] : 14
    [0 3] : 6
    [0 5] : 4
    [1 1] : 10
    [1 3] : 4
    [2 1] : 4
324608 grids on Device 0
0 - 324608 grids are calculated on Device 0.
mem_info: unallocated=39778.69 MB, used=30.35 MB, free=226.65 MB, free_blocks=35
41948.634112 MB memory is available on Device 0, block_size None
    CPU time for eval rho on Device 0                                    0.50 sec, wall time      0.04 sec, GPU time     39.04 ms
    CPU time for eval vxc on Device 0                                    0.00 sec, wall time      0.00 sec, GPU time      1.03 ms
0 - 324608 grids are calculated on Device 0.
mem_info: unallocated=39770.69 MB, used=38.77 MB, free=218.23 MB, free_blocks=33
41931.421696 MB memory is available on Device 0, block_size None
    CPU time for eval integration on 0                                   0.02 sec, wall time      0.02 sec, GPU time     19.32 ms
    CPU time for nr_rks                                                  0.64 sec, wall time      0.06 sec, GPU time     62.52 ms
nelec by numeric integration = 32.00001644554966
    CPU time for vxc                                                     0.88 sec, wall time      0.07 sec, GPU time     69.94 ms
Build CDERI ...
Psi4 predefined JKFIT basis set def2-svp-jkfit for HF
Default auxbasis def2-svp-jkfit is applied universally
num shells = 136, num cGTOs = 410
    CPU time for 2c2e                                                    0.01 sec, wall time      0.01 sec, GPU time     13.99 ms
Number of shells for each [l, nctr] group
    [0 1] : 14
    [0 3] : 6
    [0 5] : 4
    [1 1] : 10
    [1 3] : 4
    [2 1] : 4
Number of shells for each [l, nctr] group
    [0 1] : 42
    [0 3] : 6
    [0 5] : 4
    [1 1] : 40
    [1 3] : 4
    [2 1] : 27
    [2 2] : 3
    [2 3] : 1
    [3 1] : 2
    [3 2] : 3
    [4 1] : 4
    CPU time for Initialize q_cond                                       0.13 sec, wall time      0.00 sec, GPU time      2.66 ms
    CPU time for Get AO pairing                                          0.00 sec, wall time      0.00 sec, GPU time      0.58 ms
    CPU time for AO indices                                              0.00 sec, wall time      0.00 sec, GPU time      0.19 ms
    CPU time for Aux AO indices                                          0.00 sec, wall time      0.00 sec, GPU time      0.35 ms
    CPU time for Get AO pairs                                            0.00 sec, wall time      0.00 sec, GPU time      0.83 ms
    CPU time for prepare intopt                                          0.16 sec, wall time      0.01 sec, GPU time      8.17 ms
size of aux basis 410
Saving CDERI on GPU
CDERI size 0.011 GB on Device 0
    CPU time for Initialize GPU cache on Device 0                        0.00 sec, wall time      0.00 sec, GPU time      0.25 ms
    CPU time for solve 5 / 21 on Device 0                                0.13 sec, wall time      0.00 sec, GPU time      3.36 ms
    CPU time for transfer data for 5 / 21 on Device 0                    0.00 sec, wall time      0.00 sec, GPU time      0.08 ms
    CPU time for solve 2 / 21 on Device 0                                0.00 sec, wall time      0.00 sec, GPU time      2.21 ms
    CPU time for transfer data for 2 / 21 on Device 0                    0.00 sec, wall time      0.00 sec, GPU time      0.07 ms
    CPU time for solve 4 / 21 on Device 0                                0.12 sec, wall time      0.00 sec, GPU time      2.37 ms
    CPU time for transfer data for 4 / 21 on Device 0                    0.00 sec, wall time      0.00 sec, GPU time      0.07 ms
    CPU time for solve 12 / 21 on Device 0                               0.09 sec, wall time      0.00 sec, GPU time      2.59 ms
    CPU time for transfer data for 12 / 21 on Device 0                   0.00 sec, wall time      0.00 sec, GPU time      0.07 ms
    CPU time for solve 3 / 21 on Device 0                                0.00 sec, wall time      0.00 sec, GPU time      2.10 ms
    CPU time for transfer data for 3 / 21 on Device 0                    0.00 sec, wall time      0.00 sec, GPU time      0.07 ms
    CPU time for solve 11 / 21 on Device 0                               0.00 sec, wall time      0.00 sec, GPU time      2.29 ms
    CPU time for transfer data for 11 / 21 on Device 0                   0.00 sec, wall time      0.00 sec, GPU time      0.07 ms
    CPU time for solve 14 / 21 on Device 0                               0.00 sec, wall time      0.00 sec, GPU time      3.02 ms
    CPU time for transfer data for 14 / 21 on Device 0                   0.00 sec, wall time      0.00 sec, GPU time      0.07 ms
    CPU time for solve 17 / 21 on Device 0                               0.00 sec, wall time      0.00 sec, GPU time      2.22 ms
    CPU time for transfer data for 17 / 21 on Device 0                   0.00 sec, wall time      0.00 sec, GPU time      0.07 ms
    CPU time for solve 1 / 21 on Device 0                                0.00 sec, wall time      0.00 sec, GPU time      2.05 ms
    CPU time for transfer data for 1 / 21 on Device 0                    0.00 sec, wall time      0.00 sec, GPU time      0.07 ms
    CPU time for solve 0 / 21 on Device 0                                0.00 sec, wall time      0.00 sec, GPU time      2.03 ms
    CPU time for transfer data for 0 / 21 on Device 0                    0.00 sec, wall time      0.00 sec, GPU time      0.07 ms
    CPU time for solve 16 / 21 on Device 0                               0.00 sec, wall time      0.00 sec, GPU time      2.34 ms
    CPU time for transfer data for 16 / 21 on Device 0                   0.00 sec, wall time      0.00 sec, GPU time      0.07 ms
    CPU time for solve 8 / 21 on Device 0                                0.00 sec, wall time      0.00 sec, GPU time      2.13 ms
    CPU time for transfer data for 8 / 21 on Device 0                    0.00 sec, wall time      0.00 sec, GPU time      0.07 ms
    CPU time for solve 10 / 21 on Device 0                               0.00 sec, wall time      0.00 sec, GPU time      2.10 ms
    CPU time for transfer data for 10 / 21 on Device 0                   0.00 sec, wall time      0.00 sec, GPU time      0.07 ms
    CPU time for solve 7 / 21 on Device 0                                0.00 sec, wall time      0.00 sec, GPU time      2.09 ms
    CPU time for transfer data for 7 / 21 on Device 0                    0.00 sec, wall time      0.00 sec, GPU time      0.07 ms
    CPU time for solve 20 / 21 on Device 0                               0.00 sec, wall time      0.00 sec, GPU time      2.88 ms
    CPU time for transfer data for 20 / 21 on Device 0                   0.00 sec, wall time      0.00 sec, GPU time      0.07 ms
    CPU time for solve 19 / 21 on Device 0                               0.00 sec, wall time      0.00 sec, GPU time      2.49 ms
    CPU time for transfer data for 19 / 21 on Device 0                   0.00 sec, wall time      0.00 sec, GPU time      0.07 ms
    CPU time for solve 15 / 21 on Device 0                               0.00 sec, wall time      0.00 sec, GPU time      2.08 ms
    CPU time for transfer data for 15 / 21 on Device 0                   0.00 sec, wall time      0.00 sec, GPU time      0.07 ms
    CPU time for solve 13 / 21 on Device 0                               0.00 sec, wall time      0.00 sec, GPU time      2.13 ms
    CPU time for transfer data for 13 / 21 on Device 0                   0.00 sec, wall time      0.00 sec, GPU time      0.07 ms
    CPU time for solve 6 / 21 on Device 0                                0.00 sec, wall time      0.00 sec, GPU time      2.03 ms
    CPU time for transfer data for 6 / 21 on Device 0                    0.00 sec, wall time      0.00 sec, GPU time      0.07 ms
    CPU time for solve 9 / 21 on Device 0                                0.00 sec, wall time      0.00 sec, GPU time      2.08 ms
    CPU time for transfer data for 9 / 21 on Device 0                    0.00 sec, wall time      0.00 sec, GPU time      0.07 ms
    CPU time for solve 18 / 21 on Device 0                               0.00 sec, wall time      0.00 sec, GPU time      2.12 ms
    CPU time for transfer data for 18 / 21 on Device 0                   0.00 sec, wall time      0.00 sec, GPU time      0.07 ms
    CPU time for cholesky_eri                                            0.67 sec, wall time      0.06 sec, GPU time     60.19 ms
    CPU time for init jk                                                 0.69 sec, wall time      0.07 sec, GPU time     74.36 ms
38.135 GB memory available on Device 0, block size = 256
    CPU time for vj and vk on Device 0                                   0.00 sec, wall time      0.00 sec, GPU time      2.75 ms
    CPU time for vj and vk                                               0.00 sec, wall time      0.00 sec, GPU time      4.43 ms
    CPU time for veff                                                    0.69 sec, wall time      0.08 sec, GPU time     79.58 ms
E1 = -508.52468709226986  Ecoul = 217.44961067159883  Exc = -26.852224748272167
init E= -192.74335796358
cond(S) = 3057.6004323812404
    CPU time for SCF initialization                                      2.78 sec, wall time      0.19 sec, GPU time    195.00 ms
    CPU time for DIIS                                                    0.00 sec, wall time      0.00 sec, GPU time      0.08 ms
    CPU time for eig                                                     0.00 sec, wall time      0.00 sec, GPU time      2.48 ms
  HOMO = -0.280418670460442  LUMO = 0.0800056776343778  gap = 9.80765 eV
324608 grids on Device 0
0 - 324608 grids are calculated on Device 0.
mem_info: unallocated=39778.69 MB, used=43.53 MB, free=213.47 MB, free_blocks=33
41934.818816 MB memory is available on Device 0, block_size None
    CPU time for eval rho on Device 0                                    0.04 sec, wall time      0.04 sec, GPU time     36.33 ms
    CPU time for eval vxc on Device 0                                    0.00 sec, wall time      0.00 sec, GPU time      0.98 ms
0 - 324608 grids are calculated on Device 0.
mem_info: unallocated=39770.69 MB, used=51.93 MB, free=205.07 MB, free_blocks=31
41917.620736 MB memory is available on Device 0, block_size None
    CPU time for eval integration on 0                                   0.02 sec, wall time      0.02 sec, GPU time     18.56 ms
    CPU time for nr_rks                                                  0.06 sec, wall time      0.06 sec, GPU time     58.05 ms
nelec by numeric integration = 31.99999919418422
    CPU time for vxc                                                     0.06 sec, wall time      0.06 sec, GPU time     58.20 ms
38.134 GB memory available on Device 0, block size = 256
    CPU time for vj and vk on Device 0                                   0.00 sec, wall time      0.00 sec, GPU time      3.17 ms
    CPU time for vj and vk                                               0.01 sec, wall time      0.01 sec, GPU time      6.02 ms
    CPU time for veff                                                    0.01 sec, wall time      0.01 sec, GPU time      7.35 ms
    CPU time for veff                                                    0.07 sec, wall time      0.07 sec, GPU time     67.29 ms
E1 = -508.5217919342682  Ecoul = 217.44661092900543  Exc = -26.852035115939692
    CPU time for cycle=1                                                 0.07 sec, wall time      0.07 sec, GPU time     72.11 ms
cycle= 1 E= -192.743272915839  delta_E= 8.5e-05  |g|= 0.000916  |ddm|= 0.0109
diis-c [-8.39156431e-07  1.00000000e+00]
    CPU time for DIIS                                                    0.00 sec, wall time      0.00 sec, GPU time      1.73 ms
    CPU time for eig                                                     0.00 sec, wall time      0.00 sec, GPU time      3.23 ms
  HOMO = -0.280420367530626  LUMO = 0.0799584585345287  gap = 9.80641 eV
324608 grids on Device 0
0 - 324608 grids are calculated on Device 0.
mem_info: unallocated=39778.69 MB, used=43.64 MB, free=213.36 MB, free_blocks=32
41934.697984 MB memory is available on Device 0, block_size None
    CPU time for eval rho on Device 0                                    0.05 sec, wall time      0.05 sec, GPU time     51.55 ms
    CPU time for eval vxc on Device 0                                    0.00 sec, wall time      0.00 sec, GPU time      0.94 ms
0 - 324608 grids are calculated on Device 0.
mem_info: unallocated=39770.69 MB, used=52.05 MB, free=204.96 MB, free_blocks=30
41917.499904 MB memory is available on Device 0, block_size None
    CPU time for eval integration on 0                                   0.02 sec, wall time      0.02 sec, GPU time     18.74 ms
    CPU time for nr_rks                                                  0.07 sec, wall time      0.07 sec, GPU time     73.63 ms
nelec by numeric integration = 31.99999919407428
    CPU time for vxc                                                     0.07 sec, wall time      0.07 sec, GPU time     73.78 ms
38.134 GB memory available on Device 0, block size = 256
    CPU time for vj and vk on Device 0                                   0.00 sec, wall time      0.00 sec, GPU time      3.13 ms
    CPU time for vj and vk                                               0.01 sec, wall time      0.01 sec, GPU time      5.95 ms
    CPU time for veff                                                    0.01 sec, wall time      0.01 sec, GPU time      7.27 ms
    CPU time for veff                                                    0.08 sec, wall time      0.08 sec, GPU time     83.21 ms
E1 = -508.5244685929125  Ecoul = 217.4494779628904  Exc = -26.85222568874346
    CPU time for cycle=2                                                 0.09 sec, wall time      0.09 sec, GPU time     90.39 ms
cycle= 2 E= -192.743273113402  delta_E= -1.98e-07  |g|= 0.000669  |ddm|= 0.00191
diis-c [-1.03196449e-07  4.06032757e-01  5.93967243e-01]
    CPU time for DIIS                                                    0.00 sec, wall time      0.00 sec, GPU time      1.98 ms
    CPU time for eig                                                     0.00 sec, wall time      0.00 sec, GPU time      3.20 ms
  HOMO = -0.280444226078215  LUMO = 0.0799838155082871  gap = 9.80775 eV
324608 grids on Device 0
0 - 324608 grids are calculated on Device 0.
mem_info: unallocated=39778.69 MB, used=43.70 MB, free=213.30 MB, free_blocks=34
41934.637568 MB memory is available on Device 0, block_size None
    CPU time for eval rho on Device 0                                    0.04 sec, wall time      0.04 sec, GPU time     36.38 ms
    CPU time for eval vxc on Device 0                                    0.00 sec, wall time      0.00 sec, GPU time      0.93 ms
0 - 324608 grids are calculated on Device 0.
mem_info: unallocated=39770.69 MB, used=52.10 MB, free=204.90 MB, free_blocks=32
41917.439488 MB memory is available on Device 0, block_size None
    CPU time for eval integration on 0                                   0.02 sec, wall time      0.02 sec, GPU time     18.48 ms
    CPU time for nr_rks                                                  0.06 sec, wall time      0.06 sec, GPU time     58.12 ms
nelec by numeric integration = 31.99999919409141
    CPU time for vxc                                                     0.06 sec, wall time      0.06 sec, GPU time     58.27 ms
38.134 GB memory available on Device 0, block size = 256
    CPU time for vj and vk on Device 0                                   0.00 sec, wall time      0.00 sec, GPU time      3.15 ms
    CPU time for vj and vk                                               0.01 sec, wall time      0.01 sec, GPU time      5.92 ms
    CPU time for veff                                                    0.01 sec, wall time      0.01 sec, GPU time      7.23 ms
    CPU time for veff                                                    0.07 sec, wall time      0.07 sec, GPU time     67.65 ms
E1 = -508.52314399222166  Ecoul = 217.44807586133751  Exc = -26.8521482833275
    CPU time for cycle=3                                                 0.08 sec, wall time      0.08 sec, GPU time     75.07 ms
cycle= 3 E= -192.743273208848  delta_E= -9.54e-08  |g|= 0.000241  |ddm|= 0.000804
diis-c [-1.15514906e-08  6.07917073e-02  2.68207246e-01  6.71001047e-01]
    CPU time for DIIS                                                    0.00 sec, wall time      0.00 sec, GPU time      2.32 ms
    CPU time for eig                                                     0.00 sec, wall time      0.00 sec, GPU time      3.20 ms
  HOMO = -0.280415992577838  LUMO = 0.0799785222504722  gap = 9.80683 eV
324608 grids on Device 0
0 - 324608 grids are calculated on Device 0.
mem_info: unallocated=39778.69 MB, used=43.76 MB, free=213.24 MB, free_blocks=34
41934.577152 MB memory is available on Device 0, block_size None
    CPU time for eval rho on Device 0                                    0.04 sec, wall time      0.04 sec, GPU time     37.29 ms
    CPU time for eval vxc on Device 0                                    0.00 sec, wall time      0.00 sec, GPU time      0.94 ms
0 - 324608 grids are calculated on Device 0.
mem_info: unallocated=39770.69 MB, used=52.16 MB, free=204.84 MB, free_blocks=33
41917.379072 MB memory is available on Device 0, block_size None
    CPU time for eval integration on 0                                   0.02 sec, wall time      0.02 sec, GPU time     18.59 ms
    CPU time for nr_rks                                                  0.06 sec, wall time      0.06 sec, GPU time     59.22 ms
nelec by numeric integration = 31.999999194033222
    CPU time for vxc                                                     0.06 sec, wall time      0.06 sec, GPU time     59.37 ms
38.134 GB memory available on Device 0, block size = 256
    CPU time for vj and vk on Device 0                                   0.01 sec, wall time      0.01 sec, GPU time      6.41 ms
    CPU time for vj and vk                                               0.01 sec, wall time      0.01 sec, GPU time      9.53 ms
    CPU time for veff                                                    0.01 sec, wall time      0.01 sec, GPU time     10.85 ms
    CPU time for veff                                                    0.07 sec, wall time      0.07 sec, GPU time     72.37 ms
E1 = -508.5228391326744  Ecoul = 217.4477230263341  Exc = -26.852100318343957
    CPU time for cycle=4                                                 0.08 sec, wall time      0.08 sec, GPU time     80.26 ms
cycle= 4 E= -192.743273219321  delta_E= -1.05e-08  |g|= 0.000108  |ddm|= 0.00026
diis-c [-1.05170480e-09 -1.34792764e-02  8.20472346e-02  3.74823575e-01
  5.56608466e-01]
    CPU time for DIIS                                                    0.00 sec, wall time      0.00 sec, GPU time      2.64 ms
    CPU time for eig                                                     0.00 sec, wall time      0.00 sec, GPU time      3.27 ms
  HOMO = -0.28043343932794  LUMO = 0.0799776581730563  gap = 9.80729 eV
324608 grids on Device 0
0 - 324608 grids are calculated on Device 0.
mem_info: unallocated=39778.69 MB, used=43.82 MB, free=213.18 MB, free_blocks=35
41934.516736 MB memory is available on Device 0, block_size None
    CPU time for eval rho on Device 0                                    0.04 sec, wall time      0.04 sec, GPU time     36.66 ms
    CPU time for eval vxc on Device 0                                    0.00 sec, wall time      0.00 sec, GPU time      0.96 ms
0 - 324608 grids are calculated on Device 0.
mem_info: unallocated=39770.69 MB, used=52.22 MB, free=204.78 MB, free_blocks=33
41917.318656 MB memory is available on Device 0, block_size None
    CPU time for eval integration on 0                                   0.02 sec, wall time      0.02 sec, GPU time     18.61 ms
    CPU time for nr_rks                                                  0.06 sec, wall time      0.06 sec, GPU time     58.71 ms
nelec by numeric integration = 31.999999194050858
    CPU time for vxc                                                     0.06 sec, wall time      0.06 sec, GPU time     58.86 ms
38.134 GB memory available on Device 0, block size = 256
    CPU time for vj and vk on Device 0                                   0.01 sec, wall time      0.01 sec, GPU time      6.67 ms
    CPU time for vj and vk                                               0.01 sec, wall time      0.01 sec, GPU time      9.76 ms
    CPU time for veff                                                    0.01 sec, wall time      0.01 sec, GPU time     11.06 ms
    CPU time for veff                                                    0.07 sec, wall time      0.07 sec, GPU time     72.07 ms
E1 = -508.5232425990548  Ecoul = 217.44817214411495  Exc = -26.85214597192784
    CPU time for cycle=5                                                 0.08 sec, wall time      0.08 sec, GPU time     80.20 ms
cycle= 5 E= -192.743273221504  delta_E= -2.18e-09  |g|= 2.38e-05  |ddm|= 0.00011
diis-c [-4.46000135e-11 -1.22858375e-02  1.04814804e-02  1.02971579e-01
  2.48512305e-01  6.50320473e-01]
    CPU time for DIIS                                                    0.00 sec, wall time      0.00 sec, GPU time      2.92 ms
    CPU time for eig                                                     0.00 sec, wall time      0.00 sec, GPU time      3.22 ms
  HOMO = -0.280430354816548  LUMO = 0.0799779131364811  gap = 9.80721 eV
324608 grids on Device 0
0 - 324608 grids are calculated on Device 0.
mem_info: unallocated=39778.69 MB, used=43.87 MB, free=213.13 MB, free_blocks=37
41934.45632 MB memory is available on Device 0, block_size None
    CPU time for eval rho on Device 0                                    0.04 sec, wall time      0.04 sec, GPU time     36.95 ms
    CPU time for eval vxc on Device 0                                    0.00 sec, wall time      0.00 sec, GPU time      0.93 ms
0 - 324608 grids are calculated on Device 0.
mem_info: unallocated=39770.69 MB, used=52.28 MB, free=204.73 MB, free_blocks=35
41917.25824 MB memory is available on Device 0, block_size None
    CPU time for eval integration on 0                                   0.02 sec, wall time      0.02 sec, GPU time     18.62 ms
    CPU time for nr_rks                                                  0.06 sec, wall time      0.06 sec, GPU time     58.82 ms
nelec by numeric integration = 31.99999919404882
    CPU time for vxc                                                     0.06 sec, wall time      0.06 sec, GPU time     58.97 ms
38.134 GB memory available on Device 0, block size = 256
    CPU time for vj and vk on Device 0                                   0.00 sec, wall time      0.00 sec, GPU time      3.15 ms
    CPU time for vj and vk                                               0.01 sec, wall time      0.01 sec, GPU time      6.02 ms
    CPU time for veff                                                    0.01 sec, wall time      0.01 sec, GPU time      7.31 ms
    CPU time for veff                                                    0.07 sec, wall time      0.07 sec, GPU time     68.46 ms
E1 = -508.5231790122232  Ecoul = 217.44810033017  Exc = -26.8521377449375
    CPU time for cycle=6                                                 0.08 sec, wall time      0.08 sec, GPU time     76.89 ms
cycle= 6 E= -192.743273221627  delta_E= -1.23e-10  |g|= 4.33e-06  |ddm|= 2.6e-05
diis-c [-4.22316127e-12 -4.24646917e-03  6.52127174e-04  2.38717982e-02
  7.17904042e-02  2.47252309e-01  6.60679831e-01]
    CPU time for DIIS                                                    0.00 sec, wall time      0.00 sec, GPU time      3.25 ms
    CPU time for eig                                                     0.00 sec, wall time      0.00 sec, GPU time      3.49 ms
  HOMO = -0.280430157963623  LUMO = 0.0799780357327606  gap = 9.80721 eV
324608 grids on Device 0
0 - 324608 grids are calculated on Device 0.
mem_info: unallocated=39778.69 MB, used=43.93 MB, free=213.07 MB, free_blocks=36
41934.395904 MB memory is available on Device 0, block_size None
    CPU time for eval rho on Device 0                                    0.04 sec, wall time      0.04 sec, GPU time     36.28 ms
    CPU time for eval vxc on Device 0                                    0.00 sec, wall time      0.00 sec, GPU time      0.93 ms
0 - 324608 grids are calculated on Device 0.
mem_info: unallocated=39770.69 MB, used=52.33 MB, free=204.67 MB, free_blocks=34
41917.197824 MB memory is available on Device 0, block_size None
    CPU time for eval integration on 0                                   0.02 sec, wall time      0.02 sec, GPU time     18.23 ms
    CPU time for nr_rks                                                  0.06 sec, wall time      0.06 sec, GPU time     57.92 ms
nelec by numeric integration = 31.999999194047184
    CPU time for vxc                                                     0.06 sec, wall time      0.06 sec, GPU time     58.07 ms
38.134 GB memory available on Device 0, block size = 256
    CPU time for vj and vk on Device 0                                   0.00 sec, wall time      0.00 sec, GPU time      3.09 ms
    CPU time for vj and vk                                               0.01 sec, wall time      0.01 sec, GPU time      5.84 ms
    CPU time for veff                                                    0.01 sec, wall time      0.01 sec, GPU time      7.15 ms
    CPU time for veff                                                    0.07 sec, wall time      0.07 sec, GPU time     67.47 ms
E1 = -508.5231643351129  Ecoul = 217.44808488261572  Exc = -26.8521369744975
    CPU time for cycle=7                                                 0.08 sec, wall time      0.08 sec, GPU time     76.40 ms
cycle= 7 E= -192.743273221631  delta_E= -4.04e-12  |g|= 1.57e-06  |ddm|= 5.86e-06
    CPU time for SCF                                                     3.33 sec, wall time      0.75 sec, GPU time    748.27 ms
converged SCF energy = -192.743273221631


******** <class 'gpu4pyscf.grad.rhf.Gradients_Scanner'> for <class 'pyscf.scf.hf.DFRKS_Scanner'> ********
unit = Eh/Bohr
max_memory 4000 MB (current use 1111 MB)
Number of shells for each [l, nctr] group
    [0 1] : 14
    [0 3] : 6
    [0 5] : 4
    [1 1] : 10
    [1 3] : 4
    [2 1] : 4
    CPU time for Initialize q_cond                                       0.13 sec, wall time      0.00 sec, GPU time      2.46 ms
    CPU time for Get AO pairing                                          0.00 sec, wall time      0.00 sec, GPU time      1.92 ms
    CPU time for AO indices                                              0.00 sec, wall time      0.00 sec, GPU time      0.42 ms
    CPU time for Initialize GPU cache                                    0.00 sec, wall time      0.00 sec, GPU time      0.87 ms
    CPU time for gradients of h1e                                        0.47 sec, wall time      0.02 sec, GPU time     21.22 ms
324608 grids on Device 0
0 - 324608 grids are calculated on Device 0.
mem_info: unallocated=39778.69 MB, used=23.91 MB, free=233.10 MB, free_blocks=37
41955.395072 MB memory is available on Device 0, block_size None
    CPU time for gradient of vxc                                         0.22 sec, wall time      0.17 sec, GPU time    173.25 ms
    CPU time for grad vxc                                                0.22 sec, wall time      0.18 sec, GPU time    175.32 ms
    CPU time for vxc total                                               0.35 sec, wall time      0.18 sec, GPU time    175.73 ms
Number of shells for each [l, nprim] group
    [0 5] : 4
    [0 3] : 6
    [0 1] : 14
    [1 3] : 4
    [1 1] : 10
    [2 1] : 4
Number of shells for each [l, nprim] group
    [0 5] : 4
    [0 3] : 6
    [0 1] : 42
    [1 3] : 4
    [1 1] : 40
    [2 3] : 1
    [2 2] : 3
    [2 1] : 27
    [3 2] : 3
    [3 1] : 2
    [4 1] : 4
dm_factor shape (90, 16)
sp_batches = 1, ksh_batches = 11
41.711 GB free memory. nao_pair=4195 naux=480 batch_size=480 blksize=480
    CPU time for contract dm                                             0.03 sec, wall time      0.03 sec, GPU time     34.60 ms
int2c2e_kernel, nimgs = 1
    CPU time for contract int3c2e_ejk_ip1                                0.04 sec, wall time      0.04 sec, GPU time     50.35 ms
int2c2e_kernel, nimgs = 1
    CPU time for contract int2c2e_ip1                                    0.04 sec, wall time      0.04 sec, GPU time     21.39 ms
    CPU time for gradients of veff                                       0.49 sec, wall time      0.32 sec, GPU time    322.85 ms
Computing Gradients of NR-HF Coulomb repulsion
    CPU time for gradients of 2e part                                    0.49 sec, wall time      0.32 sec, GPU time    322.96 ms
    CPU time for gradients of electronic part                            0.96 sec, wall time      0.34 sec, GPU time    344.98 ms
    CPU time for SCF gradients                                           0.96 sec, wall time      0.35 sec, GPU time    345.43 ms
--------------- DFRKS_Scanner gradients ---------------
         x                y                z
0 O    -0.0000259124     0.0000485733    -0.0000089766
1 C     0.0002441434    -0.0003014422    -0.0001303159
2 C    -0.0000342802     0.0003668846     0.0000106547
3 C     0.0000018908     0.0001431416     0.0000092872
4 H    -0.0000987692    -0.0001704649     0.0001009333
5 H     0.0000021791    -0.0000049771     0.0001302912
6 H    -0.0000564172    -0.0000608154    -0.0001325479
7 H    -0.0000734637     0.0000522231     0.0001319618
8 H     0.0000369219     0.0000928829    -0.0000825392
9 H     0.0000037626    -0.0001671277    -0.0000254075
----------------------------------------------
cycle 6: E = -192.743273222  dE = -1.13137e-05  norm(grad) = 0.000698877

Geometry optimization cycle 7
Cartesian coordinates (Angstrom)
 Atom        New coordinates             dX        dY        dZ
   O  -0.800307  -0.735721   0.066462    0.000366 -0.001122 -0.002864
   C   0.224478   0.076228  -0.468945    0.000376  0.001988  0.001005
   C  -0.966197   0.661711   0.150276   -0.001556 -0.001803  0.000708
   C   1.555296   0.038040   0.220880    0.000622  0.000018 -0.000145
   H   0.263074   0.070950  -1.568899    0.000169  0.005678  0.000864
   H  -1.757174   1.091653  -0.478753    0.001143  0.000772 -0.001177
   H  -0.890843   1.091691   1.158526   -0.003885 -0.004775  0.002411
   H   2.161449   0.917028  -0.048883    0.003776 -0.003963 -0.006430
   H   2.118696  -0.862792  -0.067892   -0.003320 -0.004085  0.004568
   H   1.423307   0.022294   1.312580    0.002273  0.007538  0.000216
New geometry
   1 O     -0.800307111511  -0.735720986183   0.066461572975 AA   -1.512361256297  -1.390311167981   0.125594170730 Bohr
   2 C      0.224478212527   0.076228289343  -0.468944874073 AA    0.424202342609   0.144050589802  -0.886177379517 Bohr
   3 C     -0.966197191908   0.661710859866   0.150275648730 AA   -1.825848075029   1.250452298797   0.283979819292 Bohr
   4 C      1.555295976582   0.038039762102   0.220880259640 AA    2.939083438379   0.071884732216   0.417403197043 Bohr
   5 H      0.263074154055   0.070950145824  -1.568898995213 AA    0.497138101615   0.134076344105  -2.964789418058 Bohr
   6 H     -1.757174355539   1.091653104375  -0.478752931018 AA   -3.320578285077   2.062925390300  -0.904711920957 Bohr
   7 H     -0.890842531822   1.091691035846   1.158525734013 AA   -1.683448405258   2.062997070391   2.189296345546 Bohr
   8 H      2.161448769354   0.917028177325  -0.048882847915 AA    4.084546206357   1.732932103653  -0.092375194747 Bohr
   9 H      2.118696253160  -0.862792429297  -0.067891636002 AA    4.003755659614  -1.630441393719  -0.128296598192 Bohr
  10 H      1.423306500369   0.022294150356   1.312580009391 AA    2.689659477010   0.042129838352   2.480416734327 Bohr


******** <class 'pyscf.scf.hf.DFRKS_Scanner'> ********
method = DFRKS_Scanner
initial guess = minao
damping factor = None
level_shift factor = None
DIIS = <class 'gpu4pyscf.scf.diis.CDIIS'>
diis_start_cycle = 1
diis_space = 8
diis_damp = 0
SCF conv_tol = 1e-10
SCF conv_tol_grad = None
SCF max_cycles = 50
direct_scf = False
XC library gpu4pyscf.dft.libxc version 7.0.0 (CUDA)
    unable to decode the reference due to https://github.com/NVIDIA/cuda-python/issues/29
XC functionals = PBE0
radial grids: 
Treutler-Ahlrichs [JCP 102, 346 (1995); DOI:10.1063/1.469408] (M4) radial grids

becke partition: Becke, JCP 88, 2547 (1988); DOI:10.1063/1.454033
pruning grids: <function nwchem_prune at 0x14b55ceca7a0>
grids dens level: 3
symmetrized grids: False
atomic radii adjust function: <function treutler_atomic_radii_adjust at 0x14b55ceca840>
User specified grid scheme (99, 590)
small_rho_cutoff = 0
Set gradient conv threshold to 1e-05
Number of shells for each [l, nprim] group
    [0 5] : 4
    [0 3] : 6
    [0 1] : 14
    [1 3] : 4
    [1 1] : 10
    [2 1] : 4
sp_blocks = 21, ksh_blocks = 1, shm_size = 59512 B
    CPU time for processing contract_int3c2e_auxvec                      0.12 sec, wall time      0.00 sec, GPU time      2.36 ms
Number of shells for each [l, nprim] group
    [0 5] : 4
    [0 3] : 6
    [0 1] : 14
    [1 3] : 4
    [1 1] : 10
    [2 1] : 4
Number of shells for each [l, nprim] group
    [0 5] : 4
    [0 3] : 6
    [0 1] : 14
    [1 3] : 4
    [1 1] : 10
    [2 1] : 4
    CPU time for hcore                                                   1.20 sec, wall time      0.04 sec, GPU time     41.78 ms
atom O rad-grids = 99, ang-grids = [ 50  50  50  50  50  50  50  50  50  50  50  50  50  50  50  50  50  50
  50  50  50  50  50  50  50  50  50  50  50  50  86  86  86  86  86  86
  86  86  86  86  86  86  86 434 434 434 434 434 434 434 434 590 590 590
 590 590 590 590 590 590 590 590 590 590 590 590 590 590 590 590 590 590
 590 590 590 590 590 590 434 434 434 434 434 434 434 434 434 434 434 434
 434 434 434 434 434 434 434 434 434]
atom C rad-grids = 99, ang-grids = [ 50  50  50  50  50  50  50  50  50  50  50  50  50  50  50  50  50  50
  50  50  50  50  50  50  50  50  50  50  50  50  86  86  86  86  86  86
  86  86  86  86  86  86 434 434 434 434 434 434 434 434 434 590 590 590
 590 590 590 590 590 590 590 590 590 590 590 590 590 590 590 590 590 590
 590 590 590 590 590 434 434 434 434 434 434 434 434 434 434 434 434 434
 434 434 434 434 434 434 434 434 434]
atom H rad-grids = 99, ang-grids = [ 50  50  50  50  50  50  50  50  50  50  50  50  50  50  50  50  50  50
  50  50  50  50  50  50  50  50  50  50  50  50  86  86  86  86  86  86
  86 434 434 434 434 434 434 434 434 434 434 590 590 590 590 590 590 590
 590 590 590 590 590 590 590 590 590 590 590 590 590 590 590 590 590 590
 590 590 434 434 434 434 434 434 434 434 434 434 434 434 434 434 434 434
 434 434 434 434 434 434 434 434 434]
    CPU time for generating atomic grids                                 0.24 sec, wall time      0.01 sec, GPU time      6.32 ms
Padding 164 grids
    CPU time for sorting grids                                           0.00 sec, wall time      0.00 sec, GPU time      0.93 ms
tot grids = 324608
    CPU time for setting up grids                                        0.24 sec, wall time      0.01 sec, GPU time      7.35 ms
Number of shells for each [l, nctr] group
    [0 1] : 14
    [0 3] : 6
    [0 5] : 4
    [1 1] : 10
    [1 3] : 4
    [2 1] : 4
324608 grids on Device 0
0 - 324608 grids are calculated on Device 0.
mem_info: unallocated=39778.69 MB, used=30.35 MB, free=226.65 MB, free_blocks=38
41948.634112 MB memory is available on Device 0, block_size None
    CPU time for eval rho on Device 0                                    1.08 sec, wall time      0.04 sec, GPU time     38.90 ms
    CPU time for eval vxc on Device 0                                    0.12 sec, wall time      0.00 sec, GPU time      1.05 ms
0 - 324608 grids are calculated on Device 0.
mem_info: unallocated=39770.69 MB, used=38.77 MB, free=218.23 MB, free_blocks=35
41931.421696 MB memory is available on Device 0, block_size None
    CPU time for eval integration on 0                                   0.02 sec, wall time      0.02 sec, GPU time     18.84 ms
    CPU time for nr_rks                                                  1.34 sec, wall time      0.06 sec, GPU time     61.57 ms
nelec by numeric integration = 31.999957296330994
    CPU time for vxc                                                     1.58 sec, wall time      0.07 sec, GPU time     69.03 ms
Build CDERI ...
Psi4 predefined JKFIT basis set def2-svp-jkfit for HF
Default auxbasis def2-svp-jkfit is applied universally
num shells = 136, num cGTOs = 410
    CPU time for 2c2e                                                    0.03 sec, wall time      0.01 sec, GPU time     12.72 ms
Number of shells for each [l, nctr] group
    [0 1] : 14
    [0 3] : 6
    [0 5] : 4
    [1 1] : 10
    [1 3] : 4
    [2 1] : 4
Number of shells for each [l, nctr] group
    [0 1] : 42
    [0 3] : 6
    [0 5] : 4
    [1 1] : 40
    [1 3] : 4
    [2 1] : 27
    [2 2] : 3
    [2 3] : 1
    [3 1] : 2
    [3 2] : 3
    [4 1] : 4
    CPU time for Initialize q_cond                                       0.13 sec, wall time      0.00 sec, GPU time      2.75 ms
    CPU time for Get AO pairing                                          0.00 sec, wall time      0.00 sec, GPU time      0.64 ms
    CPU time for AO indices                                              0.00 sec, wall time      0.00 sec, GPU time      0.19 ms
    CPU time for Aux AO indices                                          0.00 sec, wall time      0.00 sec, GPU time      0.36 ms
    CPU time for Get AO pairs                                            0.12 sec, wall time      0.00 sec, GPU time      0.90 ms
    CPU time for prepare intopt                                          0.26 sec, wall time      0.01 sec, GPU time      8.51 ms
size of aux basis 410
Saving CDERI on GPU
CDERI size 0.011 GB on Device 0
    CPU time for Initialize GPU cache on Device 0                        0.00 sec, wall time      0.00 sec, GPU time      0.25 ms
    CPU time for solve 5 / 21 on Device 0                                0.13 sec, wall time      0.00 sec, GPU time      3.44 ms
    CPU time for transfer data for 5 / 21 on Device 0                    0.00 sec, wall time      0.00 sec, GPU time      0.08 ms
    CPU time for solve 2 / 21 on Device 0                                0.00 sec, wall time      0.00 sec, GPU time      2.23 ms
    CPU time for transfer data for 2 / 21 on Device 0                    0.12 sec, wall time      0.00 sec, GPU time      0.08 ms
    CPU time for solve 4 / 21 on Device 0                                0.03 sec, wall time      0.00 sec, GPU time      2.38 ms
    CPU time for transfer data for 4 / 21 on Device 0                    0.01 sec, wall time      0.00 sec, GPU time      0.07 ms
    CPU time for solve 12 / 21 on Device 0                               0.01 sec, wall time      0.00 sec, GPU time      3.07 ms
    CPU time for transfer data for 12 / 21 on Device 0                   0.00 sec, wall time      0.00 sec, GPU time      0.07 ms
    CPU time for solve 3 / 21 on Device 0                                0.00 sec, wall time      0.00 sec, GPU time      2.10 ms
    CPU time for transfer data for 3 / 21 on Device 0                    0.00 sec, wall time      0.00 sec, GPU time      0.08 ms
    CPU time for solve 11 / 21 on Device 0                               0.00 sec, wall time      0.00 sec, GPU time      2.30 ms
    CPU time for transfer data for 11 / 21 on Device 0                   0.00 sec, wall time      0.00 sec, GPU time      0.07 ms
    CPU time for solve 14 / 21 on Device 0                               0.00 sec, wall time      0.00 sec, GPU time      3.07 ms
    CPU time for transfer data for 14 / 21 on Device 0                   0.00 sec, wall time      0.00 sec, GPU time      0.07 ms
    CPU time for solve 17 / 21 on Device 0                               0.00 sec, wall time      0.00 sec, GPU time      2.24 ms
    CPU time for transfer data for 17 / 21 on Device 0                   0.00 sec, wall time      0.00 sec, GPU time      0.07 ms
    CPU time for solve 1 / 21 on Device 0                                0.00 sec, wall time      0.00 sec, GPU time      2.06 ms
    CPU time for transfer data for 1 / 21 on Device 0                    0.00 sec, wall time      0.00 sec, GPU time      0.07 ms
    CPU time for solve 0 / 21 on Device 0                                0.00 sec, wall time      0.00 sec, GPU time      2.01 ms
    CPU time for transfer data for 0 / 21 on Device 0                    0.00 sec, wall time      0.00 sec, GPU time      0.08 ms
    CPU time for solve 16 / 21 on Device 0                               0.00 sec, wall time      0.00 sec, GPU time      2.17 ms
    CPU time for transfer data for 16 / 21 on Device 0                   0.00 sec, wall time      0.00 sec, GPU time      0.07 ms
    CPU time for solve 8 / 21 on Device 0                                0.00 sec, wall time      0.00 sec, GPU time      2.24 ms
    CPU time for transfer data for 8 / 21 on Device 0                    0.00 sec, wall time      0.00 sec, GPU time      0.07 ms
    CPU time for solve 10 / 21 on Device 0                               0.00 sec, wall time      0.00 sec, GPU time      2.06 ms
    CPU time for transfer data for 10 / 21 on Device 0                   0.00 sec, wall time      0.00 sec, GPU time      0.07 ms
    CPU time for solve 7 / 21 on Device 0                                0.00 sec, wall time      0.00 sec, GPU time      2.14 ms
    CPU time for transfer data for 7 / 21 on Device 0                    0.00 sec, wall time      0.00 sec, GPU time      0.07 ms
    CPU time for solve 20 / 21 on Device 0                               0.00 sec, wall time      0.00 sec, GPU time      2.69 ms
    CPU time for transfer data for 20 / 21 on Device 0                   0.00 sec, wall time      0.00 sec, GPU time      0.07 ms
    CPU time for solve 19 / 21 on Device 0                               0.00 sec, wall time      0.00 sec, GPU time      2.24 ms
    CPU time for transfer data for 19 / 21 on Device 0                   0.00 sec, wall time      0.00 sec, GPU time      0.07 ms
    CPU time for solve 15 / 21 on Device 0                               0.00 sec, wall time      0.00 sec, GPU time      2.09 ms
    CPU time for transfer data for 15 / 21 on Device 0                   0.00 sec, wall time      0.00 sec, GPU time      0.07 ms
    CPU time for solve 13 / 21 on Device 0                               0.00 sec, wall time      0.00 sec, GPU time      2.13 ms
    CPU time for transfer data for 13 / 21 on Device 0                   0.00 sec, wall time      0.00 sec, GPU time      0.07 ms
    CPU time for solve 6 / 21 on Device 0                                0.00 sec, wall time      0.00 sec, GPU time      2.09 ms
    CPU time for transfer data for 6 / 21 on Device 0                    0.00 sec, wall time      0.00 sec, GPU time      0.07 ms
    CPU time for solve 9 / 21 on Device 0                                0.00 sec, wall time      0.00 sec, GPU time      2.07 ms
    CPU time for transfer data for 9 / 21 on Device 0                    0.00 sec, wall time      0.00 sec, GPU time      0.07 ms
    CPU time for solve 18 / 21 on Device 0                               0.00 sec, wall time      0.00 sec, GPU time      2.17 ms
    CPU time for transfer data for 18 / 21 on Device 0                   0.00 sec, wall time      0.00 sec, GPU time      0.07 ms
    CPU time for cholesky_eri                                            0.60 sec, wall time      0.06 sec, GPU time     60.85 ms
    CPU time for init jk                                                 0.63 sec, wall time      0.07 sec, GPU time     73.69 ms
38.135 GB memory available on Device 0, block size = 256
    CPU time for vj and vk on Device 0                                   0.00 sec, wall time      0.00 sec, GPU time      2.89 ms
    CPU time for vj and vk                                               0.00 sec, wall time      0.00 sec, GPU time      4.50 ms
    CPU time for veff                                                    0.63 sec, wall time      0.08 sec, GPU time     78.87 ms
E1 = -508.5012898008839  Ecoul = 217.4370691921973  Exc = -26.852004097438865
init E= -192.743260403487
cond(S) = 3059.8711061441504
    CPU time for SCF initialization                                      3.42 sec, wall time      0.19 sec, GPU time    193.32 ms
    CPU time for DIIS                                                    0.00 sec, wall time      0.00 sec, GPU time      0.09 ms
    CPU time for eig                                                     0.00 sec, wall time      0.00 sec, GPU time      2.52 ms
  HOMO = -0.28045708172015  LUMO = 0.0799155241754659  gap = 9.80624 eV
324608 grids on Device 0
0 - 324608 grids are calculated on Device 0.
mem_info: unallocated=39778.69 MB, used=43.53 MB, free=213.47 MB, free_blocks=35
41934.818816 MB memory is available on Device 0, block_size None
    CPU time for eval rho on Device 0                                    0.04 sec, wall time      0.04 sec, GPU time     37.20 ms
    CPU time for eval vxc on Device 0                                    0.00 sec, wall time      0.00 sec, GPU time      1.01 ms
0 - 324608 grids are calculated on Device 0.
mem_info: unallocated=39770.69 MB, used=51.93 MB, free=205.07 MB, free_blocks=34
41917.620736 MB memory is available on Device 0, block_size None
    CPU time for eval integration on 0                                   0.02 sec, wall time      0.02 sec, GPU time     18.83 ms
    CPU time for nr_rks                                                  0.06 sec, wall time      0.06 sec, GPU time     59.11 ms
nelec by numeric integration = 31.999999179243247
    CPU time for vxc                                                     0.06 sec, wall time      0.06 sec, GPU time     59.24 ms
38.134 GB memory available on Device 0, block size = 256
    CPU time for vj and vk on Device 0                                   0.00 sec, wall time      0.00 sec, GPU time      3.15 ms
    CPU time for vj and vk                                               0.01 sec, wall time      0.01 sec, GPU time      5.94 ms
    CPU time for veff                                                    0.01 sec, wall time      0.01 sec, GPU time      7.28 ms
    CPU time for veff                                                    0.07 sec, wall time      0.07 sec, GPU time     68.31 ms
E1 = -508.5007820313628  Ecoul = 217.4364933094036  Exc = -26.85195628795779
    CPU time for cycle=1                                                 0.07 sec, wall time      0.07 sec, GPU time     73.12 ms
cycle= 1 E= -192.743280707279  delta_E= -2.03e-05  |g|= 0.00104  |ddm|= 0.0129
diis-c [-1.07779496e-06  1.00000000e+00]
    CPU time for DIIS                                                    0.00 sec, wall time      0.00 sec, GPU time      1.74 ms
    CPU time for eig                                                     0.00 sec, wall time      0.00 sec, GPU time      3.28 ms
  HOMO = -0.280355083376234  LUMO = 0.0798890548996028  gap = 9.80274 eV
324608 grids on Device 0
0 - 324608 grids are calculated on Device 0.
mem_info: unallocated=39778.69 MB, used=43.64 MB, free=213.36 MB, free_blocks=33
41934.697984 MB memory is available on Device 0, block_size None
    CPU time for eval rho on Device 0                                    0.04 sec, wall time      0.04 sec, GPU time     36.31 ms
    CPU time for eval vxc on Device 0                                    0.00 sec, wall time      0.00 sec, GPU time      0.93 ms
0 - 324608 grids are calculated on Device 0.
mem_info: unallocated=39770.69 MB, used=52.05 MB, free=204.96 MB, free_blocks=33
41917.499904 MB memory is available on Device 0, block_size None
    CPU time for eval integration on 0                                   0.02 sec, wall time      0.02 sec, GPU time     18.74 ms
    CPU time for nr_rks                                                  0.06 sec, wall time      0.06 sec, GPU time     58.29 ms
nelec by numeric integration = 31.999999179163883
    CPU time for vxc                                                     0.06 sec, wall time      0.06 sec, GPU time     58.45 ms
38.134 GB memory available on Device 0, block size = 256
    CPU time for vj and vk on Device 0                                   0.01 sec, wall time      0.01 sec, GPU time      5.29 ms
    CPU time for vj and vk                                               0.01 sec, wall time      0.01 sec, GPU time      8.28 ms
    CPU time for veff                                                    0.01 sec, wall time      0.01 sec, GPU time      9.57 ms
    CPU time for veff                                                    0.07 sec, wall time      0.07 sec, GPU time     70.16 ms
E1 = -508.5010151409243  Ecoul = 217.4366910611292  Exc = -26.8519212245506
    CPU time for cycle=2                                                 0.08 sec, wall time      0.08 sec, GPU time     77.43 ms
cycle= 2 E= -192.743281001707  delta_E= -2.94e-07  |g|= 0.000782  |ddm|= 0.00206
diis-c [-1.85869234e-07  4.08771773e-01  5.91228227e-01]
    CPU time for DIIS                                                    0.00 sec, wall time      0.00 sec, GPU time      2.08 ms
    CPU time for eig                                                     0.00 sec, wall time      0.00 sec, GPU time      3.13 ms
  HOMO = -0.280456347077257  LUMO = 0.0799109753792411  gap = 9.80609 eV
324608 grids on Device 0
0 - 324608 grids are calculated on Device 0.
mem_info: unallocated=39778.69 MB, used=43.70 MB, free=213.30 MB, free_blocks=35
41934.637568 MB memory is available on Device 0, block_size None
    CPU time for eval rho on Device 0                                    0.04 sec, wall time      0.04 sec, GPU time     36.60 ms
    CPU time for eval vxc on Device 0                                    0.00 sec, wall time      0.00 sec, GPU time      0.92 ms
0 - 324608 grids are calculated on Device 0.
mem_info: unallocated=39770.69 MB, used=52.10 MB, free=204.90 MB, free_blocks=36
41917.439488 MB memory is available on Device 0, block_size None
    CPU time for eval integration on 0                                   0.02 sec, wall time      0.02 sec, GPU time     18.07 ms
    CPU time for nr_rks                                                  0.06 sec, wall time      0.06 sec, GPU time     57.88 ms
nelec by numeric integration = 31.999999179266425
    CPU time for vxc                                                     0.06 sec, wall time      0.06 sec, GPU time     58.03 ms
38.134 GB memory available on Device 0, block size = 256
    CPU time for vj and vk on Device 0                                   0.01 sec, wall time      0.01 sec, GPU time      8.00 ms
    CPU time for vj and vk                                               0.01 sec, wall time      0.01 sec, GPU time     11.60 ms
    CPU time for veff                                                    0.01 sec, wall time      0.01 sec, GPU time     12.98 ms
    CPU time for veff                                                    0.07 sec, wall time      0.07 sec, GPU time     73.17 ms
E1 = -508.50155821801525  Ecoul = 217.4373522125798  Exc = -26.85203940218566
    CPU time for cycle=3                                                 0.08 sec, wall time      0.08 sec, GPU time     80.65 ms
cycle= 3 E= -192.743281104983  delta_E= -1.03e-07  |g|= 0.000392  |ddm|= 0.00097
diis-c [-1.78749961e-08  4.27797566e-02  3.29170155e-01  6.28050088e-01]
    CPU time for DIIS                                                    0.00 sec, wall time      0.00 sec, GPU time      2.36 ms
    CPU time for eig                                                     0.00 sec, wall time      0.00 sec, GPU time      3.16 ms
  HOMO = -0.280405329830592  LUMO = 0.0799065008788503  gap = 9.80458 eV
324608 grids on Device 0
0 - 324608 grids are calculated on Device 0.
mem_info: unallocated=39778.69 MB, used=43.76 MB, free=213.24 MB, free_blocks=36
41934.577152 MB memory is available on Device 0, block_size None
    CPU time for eval rho on Device 0                                    0.05 sec, wall time      0.05 sec, GPU time     50.32 ms
    CPU time for eval vxc on Device 0                                    0.00 sec, wall time      0.00 sec, GPU time      1.25 ms
0 - 324608 grids are calculated on Device 0.
mem_info: unallocated=39770.69 MB, used=52.16 MB, free=204.84 MB, free_blocks=36
41917.379072 MB memory is available on Device 0, block_size None
    CPU time for eval integration on 0                                   0.02 sec, wall time      0.02 sec, GPU time     19.39 ms
    CPU time for nr_rks                                                  0.07 sec, wall time      0.07 sec, GPU time     73.51 ms
nelec by numeric integration = 31.99999917919482
    CPU time for vxc                                                     0.07 sec, wall time      0.07 sec, GPU time     73.69 ms
38.134 GB memory available on Device 0, block size = 256
    CPU time for vj and vk on Device 0                                   0.00 sec, wall time      0.00 sec, GPU time      3.36 ms
    CPU time for vj and vk                                               0.01 sec, wall time      0.01 sec, GPU time      6.40 ms
    CPU time for veff                                                    0.01 sec, wall time      0.01 sec, GPU time      7.80 ms
    CPU time for veff                                                    0.08 sec, wall time      0.08 sec, GPU time     83.66 ms
E1 = -508.50076811574115  Ecoul = 217.43645402872687  Exc = -26.851931348878367
    CPU time for cycle=4                                                 0.09 sec, wall time      0.09 sec, GPU time     91.50 ms
cycle= 4 E= -192.743281133254  delta_E= -2.83e-08  |g|= 0.000108  |ddm|= 0.000371
diis-c [-1.09026667e-09 -2.26069091e-02  9.95066921e-02  2.99665744e-01
  6.23434473e-01]
    CPU time for DIIS                                                    0.00 sec, wall time      0.00 sec, GPU time      2.74 ms
    CPU time for eig                                                     0.00 sec, wall time      0.00 sec, GPU time      3.18 ms
  HOMO = -0.280419586387908  LUMO = 0.0799048025593795  gap = 9.80493 eV
324608 grids on Device 0
0 - 324608 grids are calculated on Device 0.
mem_info: unallocated=39778.69 MB, used=43.82 MB, free=213.18 MB, free_blocks=34
41934.516736 MB memory is available on Device 0, block_size None
    CPU time for eval rho on Device 0                                    0.04 sec, wall time      0.04 sec, GPU time     38.59 ms
    CPU time for eval vxc on Device 0                                    0.00 sec, wall time      0.00 sec, GPU time      0.96 ms
0 - 324608 grids are calculated on Device 0.
mem_info: unallocated=39770.69 MB, used=52.22 MB, free=204.78 MB, free_blocks=34
41917.318656 MB memory is available on Device 0, block_size None
    CPU time for eval integration on 0                                   0.02 sec, wall time      0.02 sec, GPU time     18.85 ms
    CPU time for nr_rks                                                  0.06 sec, wall time      0.06 sec, GPU time     60.95 ms
nelec by numeric integration = 31.99999917921043
    CPU time for vxc                                                     0.06 sec, wall time      0.06 sec, GPU time     61.12 ms
38.134 GB memory available on Device 0, block size = 256
    CPU time for vj and vk on Device 0                                   0.00 sec, wall time      0.00 sec, GPU time      3.64 ms
    CPU time for vj and vk                                               0.01 sec, wall time      0.01 sec, GPU time      6.74 ms
    CPU time for veff                                                    0.01 sec, wall time      0.01 sec, GPU time      8.19 ms
    CPU time for veff                                                    0.07 sec, wall time      0.07 sec, GPU time     71.52 ms
E1 = -508.501142270684  Ecoul = 217.43687224339112  Exc = -26.851975410855445
    CPU time for cycle=5                                                 0.08 sec, wall time      0.08 sec, GPU time     79.94 ms
cycle= 5 E= -192.74328113551  delta_E= -2.26e-09  |g|= 2.64e-05  |ddm|= 0.000116
diis-c [-3.29424106e-11 -1.33453051e-02  2.40827630e-02  9.62147952e-02
  2.88625905e-01  6.04421841e-01]
    CPU time for DIIS                                                    0.00 sec, wall time      0.00 sec, GPU time      3.18 ms
    CPU time for eig                                                     0.00 sec, wall time      0.00 sec, GPU time      3.19 ms
  HOMO = -0.280417464911514  LUMO = 0.0799050837663461  gap = 9.80488 eV
324608 grids on Device 0
0 - 324608 grids are calculated on Device 0.
mem_info: unallocated=39778.69 MB, used=43.87 MB, free=213.13 MB, free_blocks=34
41934.45632 MB memory is available on Device 0, block_size None
    CPU time for eval rho on Device 0                                    0.05 sec, wall time      0.05 sec, GPU time     49.44 ms
    CPU time for eval vxc on Device 0                                    0.00 sec, wall time      0.00 sec, GPU time      0.95 ms
0 - 324608 grids are calculated on Device 0.
mem_info: unallocated=39770.69 MB, used=52.28 MB, free=204.73 MB, free_blocks=35
41917.25824 MB memory is available on Device 0, block_size None
    CPU time for eval integration on 0                                   0.02 sec, wall time      0.02 sec, GPU time     18.49 ms
    CPU time for nr_rks                                                  0.07 sec, wall time      0.07 sec, GPU time     71.57 ms
nelec by numeric integration = 31.99999917921096
    CPU time for vxc                                                     0.07 sec, wall time      0.07 sec, GPU time     71.73 ms
38.134 GB memory available on Device 0, block size = 256
    CPU time for vj and vk on Device 0                                   0.01 sec, wall time      0.01 sec, GPU time      6.80 ms
    CPU time for vj and vk                                               0.01 sec, wall time      0.01 sec, GPU time     10.39 ms
    CPU time for veff                                                    0.01 sec, wall time      0.01 sec, GPU time     11.80 ms
    CPU time for veff                                                    0.09 sec, wall time      0.09 sec, GPU time     85.94 ms
E1 = -508.50109720896796  Ecoul = 217.436820922886  Exc = -26.851969152224715
    CPU time for cycle=6                                                 0.09 sec, wall time      0.09 sec, GPU time     94.59 ms
cycle= 6 E= -192.743281135668  delta_E= -1.58e-10  |g|= 3.75e-06  |ddm|= 2.78e-05
diis-c [-3.35164357e-12 -4.50048999e-03  6.41124308e-03  2.82474896e-02
  9.24112049e-02  2.29784519e-01  6.47646033e-01]
    CPU time for DIIS                                                    0.00 sec, wall time      0.00 sec, GPU time      3.26 ms
    CPU time for eig                                                     0.00 sec, wall time      0.00 sec, GPU time      3.18 ms
  HOMO = -0.280417182716833  LUMO = 0.0799052253997193  gap = 9.80487 eV
324608 grids on Device 0
0 - 324608 grids are calculated on Device 0.
mem_info: unallocated=39778.69 MB, used=43.93 MB, free=213.07 MB, free_blocks=36
41934.395904 MB memory is available on Device 0, block_size None
    CPU time for eval rho on Device 0                                    0.04 sec, wall time      0.04 sec, GPU time     37.47 ms
    CPU time for eval vxc on Device 0                                    0.00 sec, wall time      0.00 sec, GPU time      0.92 ms
0 - 324608 grids are calculated on Device 0.
mem_info: unallocated=39770.69 MB, used=52.33 MB, free=204.67 MB, free_blocks=34
41917.197824 MB memory is available on Device 0, block_size None
    CPU time for eval integration on 0                                   0.02 sec, wall time      0.02 sec, GPU time     18.75 ms
    CPU time for nr_rks                                                  0.06 sec, wall time      0.06 sec, GPU time     59.63 ms
nelec by numeric integration = 31.999999179209198
    CPU time for vxc                                                     0.06 sec, wall time      0.06 sec, GPU time     59.78 ms
38.134 GB memory available on Device 0, block size = 256
    CPU time for vj and vk on Device 0                                   0.00 sec, wall time      0.00 sec, GPU time      4.02 ms
    CPU time for vj and vk                                               0.01 sec, wall time      0.01 sec, GPU time      7.13 ms
    CPU time for veff                                                    0.01 sec, wall time      0.01 sec, GPU time      8.51 ms
    CPU time for veff                                                    0.07 sec, wall time      0.07 sec, GPU time     70.49 ms
E1 = -508.50108091615783  Ecoul = 217.4368035422926  Exc = -26.851968064444492
    CPU time for cycle=7                                                 0.08 sec, wall time      0.08 sec, GPU time     79.17 ms
cycle= 7 E= -192.743281135671  delta_E= -3.07e-12  |g|= 1.32e-06  |ddm|= 5.14e-06
    CPU time for SCF                                                     4.00 sec, wall time      0.77 sec, GPU time    771.68 ms
converged SCF energy = -192.743281135671


******** <class 'gpu4pyscf.grad.rhf.Gradients_Scanner'> for <class 'pyscf.scf.hf.DFRKS_Scanner'> ********
unit = Eh/Bohr
max_memory 4000 MB (current use 1111 MB)
Number of shells for each [l, nctr] group
    [0 1] : 14
    [0 3] : 6
    [0 5] : 4
    [1 1] : 10
    [1 3] : 4
    [2 1] : 4
    CPU time for Initialize q_cond                                       0.13 sec, wall time      0.00 sec, GPU time      2.49 ms
    CPU time for Get AO pairing                                          0.13 sec, wall time      0.00 sec, GPU time      1.94 ms
    CPU time for AO indices                                              0.00 sec, wall time      0.00 sec, GPU time      0.42 ms
    CPU time for Initialize GPU cache                                    0.00 sec, wall time      0.00 sec, GPU time      0.90 ms
    CPU time for gradients of h1e                                        0.52 sec, wall time      0.02 sec, GPU time     20.92 ms
324608 grids on Device 0
0 - 324608 grids are calculated on Device 0.
mem_info: unallocated=39778.69 MB, used=23.91 MB, free=233.10 MB, free_blocks=36
41955.395072 MB memory is available on Device 0, block_size None
    CPU time for gradient of vxc                                         0.28 sec, wall time      0.18 sec, GPU time    177.68 ms
    CPU time for grad vxc                                                0.28 sec, wall time      0.18 sec, GPU time    180.09 ms
    CPU time for vxc total                                               0.28 sec, wall time      0.18 sec, GPU time    180.56 ms
Number of shells for each [l, nprim] group
    [0 5] : 4
    [0 3] : 6
    [0 1] : 14
    [1 3] : 4
    [1 1] : 10
    [2 1] : 4
Number of shells for each [l, nprim] group
    [0 5] : 4
    [0 3] : 6
    [0 1] : 42
    [1 3] : 4
    [1 1] : 40
    [2 3] : 1
    [2 2] : 3
    [2 1] : 27
    [3 2] : 3
    [3 1] : 2
    [4 1] : 4
dm_factor shape (90, 16)
sp_batches = 1, ksh_batches = 11
41.711 GB free memory. nao_pair=4195 naux=480 batch_size=480 blksize=480
    CPU time for contract dm                                             0.04 sec, wall time      0.04 sec, GPU time     38.59 ms
int2c2e_kernel, nimgs = 1
    CPU time for contract int3c2e_ejk_ip1                                0.04 sec, wall time      0.04 sec, GPU time     49.71 ms
int2c2e_kernel, nimgs = 1
    CPU time for contract int2c2e_ip1                                    0.04 sec, wall time      0.04 sec, GPU time     22.15 ms
    CPU time for gradients of veff                                       0.43 sec, wall time      0.33 sec, GPU time    331.67 ms
Computing Gradients of NR-HF Coulomb repulsion
    CPU time for gradients of 2e part                                    0.43 sec, wall time      0.33 sec, GPU time    331.79 ms
    CPU time for gradients of electronic part                            0.95 sec, wall time      0.35 sec, GPU time    353.57 ms
    CPU time for SCF gradients                                           0.95 sec, wall time      0.35 sec, GPU time    354.07 ms
--------------- DFRKS_Scanner gradients ---------------
         x                y                z
0 O    -0.0000764648    -0.0000140012     0.0000774730
1 C     0.0003918782    -0.0000374819     0.0002013882
2 C    -0.0002617819     0.0000684111    -0.0001748677
3 C    -0.0000079701     0.0000178096    -0.0001690952
4 H    -0.0001756806    -0.0001321116     0.0000561774
5 H     0.0000974062     0.0001236344    -0.0000374844
6 H     0.0000140244    -0.0000497402     0.0000359788
7 H    -0.0000597073     0.0000905469     0.0000862441
8 H     0.0000957751     0.0000467535    -0.0000490527
9 H    -0.0000174582    -0.0001152868    -0.0000235996
----------------------------------------------
cycle 7: E = -192.743281136  dE = -7.91404e-06  norm(grad) = 0.00068489

Geometry optimization cycle 8
Cartesian coordinates (Angstrom)
 Atom        New coordinates             dX        dY        dZ
   O  -0.799006  -0.737382   0.060686    0.001301 -0.001661 -0.005776
   C   0.225105   0.079550  -0.469071    0.000626  0.003322 -0.000127
   C  -0.967790   0.659031   0.151251   -0.001592 -0.002679  0.000975
   C   1.555624   0.038453   0.220885    0.000328  0.000413  0.000005
   H   0.264922   0.080300  -1.569119    0.001847  0.009350 -0.000220
   H  -1.757629   1.091565  -0.477615   -0.000455 -0.000089  0.001138
   H  -0.894598   1.084184   1.161908   -0.003756 -0.007507  0.003383
   H   2.168088   0.909925  -0.058994    0.006639 -0.007104 -0.010111
   H   2.111869  -0.869643  -0.059060   -0.006827 -0.006851  0.008832
   H   1.425146   0.035654   1.312893    0.001839  0.013360  0.000313
New geometry
   1 O     -0.799005688935  -0.737382418854   0.060685853502 AA   -1.509901924057  -1.393450820702   0.114679642754 Bohr
   2 C      0.225104657332   0.079550310921  -0.469071403802 AA    0.425386151721   0.150328300765  -0.886416486051 Bohr
   3 C     -0.967789519229   0.659031368394   0.151250654562 AA   -1.828857137568   1.245388793761   0.285822313284 Bohr
   4 C      1.555624230885   0.038452802947   0.220884900903 AA    2.939703749110   0.072665266291   0.417411967758 Bohr
   5 H      0.264921548555   0.080300014853  -1.569118578291 AA    0.500629171265   0.151745035871  -2.965204369938 Bohr
   6 H     -1.757629390207   1.091564533863  -0.477614715144 AA   -3.321438175978   2.062758016289  -0.902561004685 Bohr
   7 H     -0.894598366282   1.084184291799   1.161908433874 AA   -1.690545903756   2.048811380055   2.195688721845 Bohr
   8 H      2.168087814259   0.909924672103  -0.058994121239 AA    4.097092182957   1.719508424259  -0.111482732101 Bohr
   9 H      2.111869264056  -0.869643303409  -0.059059719713 AA    3.990854519953  -1.643387669505  -0.111606695252 Bohr
  10 H      1.425145657092   0.035653985102   1.312893237463 AA    2.693134979518   0.067376267093   2.481008649599 Bohr


******** <class 'pyscf.scf.hf.DFRKS_Scanner'> ********
method = DFRKS_Scanner
initial guess = minao
damping factor = None
level_shift factor = None
DIIS = <class 'gpu4pyscf.scf.diis.CDIIS'>
diis_start_cycle = 1
diis_space = 8
diis_damp = 0
SCF conv_tol = 1e-10
SCF conv_tol_grad = None
SCF max_cycles = 50
direct_scf = False
XC library gpu4pyscf.dft.libxc version 7.0.0 (CUDA)
    unable to decode the reference due to https://github.com/NVIDIA/cuda-python/issues/29
XC functionals = PBE0
radial grids: 
Treutler-Ahlrichs [JCP 102, 346 (1995); DOI:10.1063/1.469408] (M4) radial grids

becke partition: Becke, JCP 88, 2547 (1988); DOI:10.1063/1.454033
pruning grids: <function nwchem_prune at 0x14b55ceca7a0>
grids dens level: 3
symmetrized grids: False
atomic radii adjust function: <function treutler_atomic_radii_adjust at 0x14b55ceca840>
User specified grid scheme (99, 590)
small_rho_cutoff = 0
Set gradient conv threshold to 1e-05
Number of shells for each [l, nprim] group
    [0 5] : 4
    [0 3] : 6
    [0 1] : 14
    [1 3] : 4
    [1 1] : 10
    [2 1] : 4
sp_blocks = 21, ksh_blocks = 1, shm_size = 59512 B
    CPU time for processing contract_int3c2e_auxvec                      0.00 sec, wall time      0.00 sec, GPU time      2.29 ms
Number of shells for each [l, nprim] group
    [0 5] : 4
    [0 3] : 6
    [0 1] : 14
    [1 3] : 4
    [1 1] : 10
    [2 1] : 4
Number of shells for each [l, nprim] group
    [0 5] : 4
    [0 3] : 6
    [0 1] : 14
    [1 3] : 4
    [1 1] : 10
    [2 1] : 4
    CPU time for hcore                                                   1.32 sec, wall time      0.04 sec, GPU time     42.06 ms
atom O rad-grids = 99, ang-grids = [ 50  50  50  50  50  50  50  50  50  50  50  50  50  50  50  50  50  50
  50  50  50  50  50  50  50  50  50  50  50  50  86  86  86  86  86  86
  86  86  86  86  86  86  86 434 434 434 434 434 434 434 434 590 590 590
 590 590 590 590 590 590 590 590 590 590 590 590 590 590 590 590 590 590
 590 590 590 590 590 590 434 434 434 434 434 434 434 434 434 434 434 434
 434 434 434 434 434 434 434 434 434]
atom C rad-grids = 99, ang-grids = [ 50  50  50  50  50  50  50  50  50  50  50  50  50  50  50  50  50  50
  50  50  50  50  50  50  50  50  50  50  50  50  86  86  86  86  86  86
  86  86  86  86  86  86 434 434 434 434 434 434 434 434 434 590 590 590
 590 590 590 590 590 590 590 590 590 590 590 590 590 590 590 590 590 590
 590 590 590 590 590 434 434 434 434 434 434 434 434 434 434 434 434 434
 434 434 434 434 434 434 434 434 434]
atom H rad-grids = 99, ang-grids = [ 50  50  50  50  50  50  50  50  50  50  50  50  50  50  50  50  50  50
  50  50  50  50  50  50  50  50  50  50  50  50  86  86  86  86  86  86
  86 434 434 434 434 434 434 434 434 434 434 590 590 590 590 590 590 590
 590 590 590 590 590 590 590 590 590 590 590 590 590 590 590 590 590 590
 590 590 434 434 434 434 434 434 434 434 434 434 434 434 434 434 434 434
 434 434 434 434 434 434 434 434 434]
    CPU time for generating atomic grids                                 0.12 sec, wall time      0.01 sec, GPU time      6.36 ms
Padding 164 grids
    CPU time for sorting grids                                           0.12 sec, wall time      0.00 sec, GPU time      0.97 ms
tot grids = 324608
    CPU time for setting up grids                                        0.24 sec, wall time      0.01 sec, GPU time      7.43 ms
Number of shells for each [l, nctr] group
    [0 1] : 14
    [0 3] : 6
    [0 5] : 4
    [1 1] : 10
    [1 3] : 4
    [2 1] : 4
324608 grids on Device 0
0 - 324608 grids are calculated on Device 0.
mem_info: unallocated=39778.69 MB, used=30.35 MB, free=226.65 MB, free_blocks=36
41948.634112 MB memory is available on Device 0, block_size None
    CPU time for eval rho on Device 0                                    0.38 sec, wall time      0.06 sec, GPU time     60.84 ms
    CPU time for eval vxc on Device 0                                    0.00 sec, wall time      0.00 sec, GPU time      1.92 ms
0 - 324608 grids are calculated on Device 0.
mem_info: unallocated=39770.69 MB, used=38.77 MB, free=218.23 MB, free_blocks=34
41931.421696 MB memory is available on Device 0, block_size None
    CPU time for eval integration on 0                                   0.02 sec, wall time      0.02 sec, GPU time     21.99 ms
    CPU time for nr_rks                                                  1.34 sec, wall time      0.12 sec, GPU time    116.79 ms
nelec by numeric integration = 31.99997329534865
    CPU time for vxc                                                     1.57 sec, wall time      0.12 sec, GPU time    124.34 ms
Build CDERI ...
Psi4 predefined JKFIT basis set def2-svp-jkfit for HF
Default auxbasis def2-svp-jkfit is applied universally
num shells = 136, num cGTOs = 410
    CPU time for 2c2e                                                    0.66 sec, wall time      0.05 sec, GPU time     46.19 ms
Number of shells for each [l, nctr] group
    [0 1] : 14
    [0 3] : 6
    [0 5] : 4
    [1 1] : 10
    [1 3] : 4
    [2 1] : 4
Number of shells for each [l, nctr] group
    [0 1] : 42
    [0 3] : 6
    [0 5] : 4
    [1 1] : 40
    [1 3] : 4
    [2 1] : 27
    [2 2] : 3
    [2 3] : 1
    [3 1] : 2
    [3 2] : 3
    [4 1] : 4
    CPU time for Initialize q_cond                                       0.24 sec, wall time      0.01 sec, GPU time      5.67 ms
    CPU time for Get AO pairing                                          0.00 sec, wall time      0.00 sec, GPU time      0.60 ms
    CPU time for AO indices                                              0.00 sec, wall time      0.00 sec, GPU time      0.20 ms
    CPU time for Aux AO indices                                          0.00 sec, wall time      0.00 sec, GPU time      0.36 ms
    CPU time for Get AO pairs                                            0.00 sec, wall time      0.00 sec, GPU time      0.87 ms
    CPU time for prepare intopt                                          0.25 sec, wall time      0.01 sec, GPU time     11.30 ms
size of aux basis 410
Saving CDERI on GPU
CDERI size 0.011 GB on Device 0
    CPU time for Initialize GPU cache on Device 0                        0.00 sec, wall time      0.00 sec, GPU time      0.26 ms
    CPU time for solve 5 / 21 on Device 0                                0.13 sec, wall time      0.00 sec, GPU time      3.56 ms
    CPU time for transfer data for 5 / 21 on Device 0                    0.00 sec, wall time      0.00 sec, GPU time      0.08 ms
    CPU time for solve 2 / 21 on Device 0                                0.00 sec, wall time      0.00 sec, GPU time      2.21 ms
    CPU time for transfer data for 2 / 21 on Device 0                    0.00 sec, wall time      0.00 sec, GPU time      0.07 ms
    CPU time for solve 4 / 21 on Device 0                                0.12 sec, wall time      0.00 sec, GPU time      2.33 ms
    CPU time for transfer data for 4 / 21 on Device 0                    0.00 sec, wall time      0.00 sec, GPU time      0.07 ms
    CPU time for solve 12 / 21 on Device 0                               0.07 sec, wall time      0.00 sec, GPU time      2.61 ms
    CPU time for transfer data for 12 / 21 on Device 0                   0.00 sec, wall time      0.00 sec, GPU time      0.08 ms
    CPU time for solve 3 / 21 on Device 0                                0.00 sec, wall time      0.00 sec, GPU time      2.07 ms
    CPU time for transfer data for 3 / 21 on Device 0                    0.00 sec, wall time      0.00 sec, GPU time      0.07 ms
    CPU time for solve 11 / 21 on Device 0                               0.00 sec, wall time      0.00 sec, GPU time      2.31 ms
    CPU time for transfer data for 11 / 21 on Device 0                   0.00 sec, wall time      0.00 sec, GPU time      0.07 ms
    CPU time for solve 14 / 21 on Device 0                               0.00 sec, wall time      0.00 sec, GPU time      3.03 ms
    CPU time for transfer data for 14 / 21 on Device 0                   0.00 sec, wall time      0.00 sec, GPU time      0.07 ms
    CPU time for solve 17 / 21 on Device 0                               0.00 sec, wall time      0.00 sec, GPU time      2.28 ms
    CPU time for transfer data for 17 / 21 on Device 0                   0.00 sec, wall time      0.00 sec, GPU time      0.07 ms
    CPU time for solve 1 / 21 on Device 0                                0.00 sec, wall time      0.00 sec, GPU time      2.06 ms
    CPU time for transfer data for 1 / 21 on Device 0                    0.00 sec, wall time      0.00 sec, GPU time      0.07 ms
    CPU time for solve 0 / 21 on Device 0                                0.00 sec, wall time      0.00 sec, GPU time      2.01 ms
    CPU time for transfer data for 0 / 21 on Device 0                    0.00 sec, wall time      0.00 sec, GPU time      0.07 ms
    CPU time for solve 16 / 21 on Device 0                               0.00 sec, wall time      0.00 sec, GPU time      2.13 ms
    CPU time for transfer data for 16 / 21 on Device 0                   0.00 sec, wall time      0.00 sec, GPU time      0.07 ms
    CPU time for solve 8 / 21 on Device 0                                0.00 sec, wall time      0.00 sec, GPU time      2.10 ms
    CPU time for transfer data for 8 / 21 on Device 0                    0.00 sec, wall time      0.00 sec, GPU time      0.07 ms
    CPU time for solve 10 / 21 on Device 0                               0.00 sec, wall time      0.00 sec, GPU time      2.05 ms
    CPU time for transfer data for 10 / 21 on Device 0                   0.00 sec, wall time      0.00 sec, GPU time      0.07 ms
    CPU time for solve 7 / 21 on Device 0                                0.00 sec, wall time      0.00 sec, GPU time      2.07 ms
    CPU time for transfer data for 7 / 21 on Device 0                    0.00 sec, wall time      0.00 sec, GPU time      0.07 ms
    CPU time for solve 20 / 21 on Device 0                               0.00 sec, wall time      0.00 sec, GPU time      2.74 ms
    CPU time for transfer data for 20 / 21 on Device 0                   0.00 sec, wall time      0.00 sec, GPU time      0.07 ms
    CPU time for solve 19 / 21 on Device 0                               0.00 sec, wall time      0.00 sec, GPU time      2.50 ms
    CPU time for transfer data for 19 / 21 on Device 0                   0.00 sec, wall time      0.00 sec, GPU time      0.07 ms
    CPU time for solve 15 / 21 on Device 0                               0.00 sec, wall time      0.00 sec, GPU time      2.06 ms
    CPU time for transfer data for 15 / 21 on Device 0                   0.00 sec, wall time      0.00 sec, GPU time      0.07 ms
    CPU time for solve 13 / 21 on Device 0                               0.00 sec, wall time      0.00 sec, GPU time      2.14 ms
    CPU time for transfer data for 13 / 21 on Device 0                   0.00 sec, wall time      0.00 sec, GPU time      0.07 ms
    CPU time for solve 6 / 21 on Device 0                                0.00 sec, wall time      0.00 sec, GPU time      2.03 ms
    CPU time for transfer data for 6 / 21 on Device 0                    0.00 sec, wall time      0.00 sec, GPU time      0.07 ms
    CPU time for solve 9 / 21 on Device 0                                0.00 sec, wall time      0.00 sec, GPU time      2.09 ms
    CPU time for transfer data for 9 / 21 on Device 0                    0.00 sec, wall time      0.00 sec, GPU time      0.07 ms
    CPU time for solve 18 / 21 on Device 0                               0.00 sec, wall time      0.00 sec, GPU time      2.10 ms
    CPU time for transfer data for 18 / 21 on Device 0                   0.00 sec, wall time      0.00 sec, GPU time      0.07 ms
    CPU time for cholesky_eri                                            0.73 sec, wall time      0.06 sec, GPU time     63.20 ms
    CPU time for init jk                                                 1.39 sec, wall time      0.11 sec, GPU time    109.50 ms
38.135 GB memory available on Device 0, block size = 256
    CPU time for vj and vk on Device 0                                   0.01 sec, wall time      0.01 sec, GPU time      5.34 ms
    CPU time for vj and vk                                               0.01 sec, wall time      0.01 sec, GPU time      8.08 ms
    CPU time for veff                                                    1.40 sec, wall time      0.12 sec, GPU time    119.13 ms
E1 = -508.48942696865373  Ecoul = 217.43066460216005  Exc = -26.851844266944465
init E= -192.74319226535
cond(S) = 3065.9510208925644
    CPU time for SCF initialization                                      4.30 sec, wall time      0.29 sec, GPU time    290.02 ms
    CPU time for DIIS                                                    0.00 sec, wall time      0.00 sec, GPU time      0.12 ms
    CPU time for eig                                                     0.00 sec, wall time      0.00 sec, GPU time      2.53 ms
  HOMO = -0.280465989913088  LUMO = 0.0798667246090763  gap = 9.80515 eV
324608 grids on Device 0
0 - 324608 grids are calculated on Device 0.
mem_info: unallocated=39778.69 MB, used=43.53 MB, free=213.47 MB, free_blocks=33
41934.818816 MB memory is available on Device 0, block_size None
    CPU time for eval rho on Device 0                                    0.05 sec, wall time      0.05 sec, GPU time     51.05 ms
    CPU time for eval vxc on Device 0                                    0.00 sec, wall time      0.00 sec, GPU time      1.81 ms
0 - 324608 grids are calculated on Device 0.
mem_info: unallocated=39770.69 MB, used=51.93 MB, free=205.07 MB, free_blocks=33
41917.620736 MB memory is available on Device 0, block_size None
    CPU time for eval integration on 0                                   0.02 sec, wall time      0.02 sec, GPU time     18.56 ms
    CPU time for nr_rks                                                  0.07 sec, wall time      0.07 sec, GPU time     74.38 ms
nelec by numeric integration = 31.999999099671175
    CPU time for vxc                                                     0.07 sec, wall time      0.07 sec, GPU time     74.54 ms
38.134 GB memory available on Device 0, block size = 256
    CPU time for vj and vk on Device 0                                   0.01 sec, wall time      0.01 sec, GPU time      6.26 ms
    CPU time for vj and vk                                               0.01 sec, wall time      0.01 sec, GPU time      9.42 ms
    CPU time for veff                                                    0.01 sec, wall time      0.01 sec, GPU time     10.81 ms
    CPU time for veff                                                    0.09 sec, wall time      0.09 sec, GPU time     87.56 ms
E1 = -508.4901635172335  Ecoul = 217.4313604918953  Exc = -26.851900145979343
    CPU time for cycle=1                                                 0.09 sec, wall time      0.09 sec, GPU time     92.51 ms
cycle= 1 E= -192.743288803229  delta_E= -9.65e-05  |g|= 0.0015  |ddm|= 0.0207
diis-c [-2.25607863e-06  1.00000000e+00]
    CPU time for DIIS                                                    0.00 sec, wall time      0.00 sec, GPU time      1.86 ms
    CPU time for eig                                                     0.00 sec, wall time      0.00 sec, GPU time      3.17 ms
  HOMO = -0.280307061075801  LUMO = 0.0798487909493144  gap = 9.80034 eV
324608 grids on Device 0
0 - 324608 grids are calculated on Device 0.
mem_info: unallocated=39778.69 MB, used=43.64 MB, free=213.36 MB, free_blocks=31
41934.697984 MB memory is available on Device 0, block_size None
    CPU time for eval rho on Device 0                                    0.05 sec, wall time      0.05 sec, GPU time     50.80 ms
    CPU time for eval vxc on Device 0                                    0.00 sec, wall time      0.00 sec, GPU time      1.03 ms
0 - 324608 grids are calculated on Device 0.
mem_info: unallocated=39770.69 MB, used=52.05 MB, free=204.96 MB, free_blocks=30
41917.499904 MB memory is available on Device 0, block_size None
    CPU time for eval integration on 0                                   0.02 sec, wall time      0.02 sec, GPU time     18.97 ms
    CPU time for nr_rks                                                  0.07 sec, wall time      0.07 sec, GPU time     73.33 ms
nelec by numeric integration = 31.99999909930887
    CPU time for vxc                                                     0.07 sec, wall time      0.07 sec, GPU time     73.50 ms
38.134 GB memory available on Device 0, block size = 256
    CPU time for vj and vk on Device 0                                   0.01 sec, wall time      0.01 sec, GPU time      6.76 ms
    CPU time for vj and vk                                               0.01 sec, wall time      0.01 sec, GPU time     10.05 ms
    CPU time for veff                                                    0.01 sec, wall time      0.01 sec, GPU time     11.39 ms
    CPU time for veff                                                    0.09 sec, wall time      0.09 sec, GPU time     87.10 ms
E1 = -508.4885045350609  Ecoul = 217.4294696565844  Exc = -26.85166901495039
    CPU time for cycle=2                                                 0.09 sec, wall time      0.09 sec, GPU time     94.41 ms
cycle= 2 E= -192.743289525338  delta_E= -7.22e-07  |g|= 0.00112  |ddm|= 0.00288
diis-c [-4.59079964e-07  3.97858630e-01  6.02141370e-01]
    CPU time for DIIS                                                    0.00 sec, wall time      0.00 sec, GPU time      1.99 ms
    CPU time for eig                                                     0.00 sec, wall time      0.00 sec, GPU time      3.29 ms
  HOMO = -0.280478182915318  LUMO = 0.0798670328953957  gap = 9.80549 eV
324608 grids on Device 0
0 - 324608 grids are calculated on Device 0.
mem_info: unallocated=39778.69 MB, used=43.70 MB, free=213.30 MB, free_blocks=34
41934.637568 MB memory is available on Device 0, block_size None
    CPU time for eval rho on Device 0                                    0.05 sec, wall time      0.05 sec, GPU time     50.56 ms
    CPU time for eval vxc on Device 0                                    0.00 sec, wall time      0.00 sec, GPU time      0.97 ms
0 - 324608 grids are calculated on Device 0.
mem_info: unallocated=39770.69 MB, used=52.10 MB, free=204.90 MB, free_blocks=32
41917.439488 MB memory is available on Device 0, block_size None
    CPU time for eval integration on 0                                   0.02 sec, wall time      0.02 sec, GPU time     18.61 ms
    CPU time for nr_rks                                                  0.07 sec, wall time      0.07 sec, GPU time     72.58 ms
nelec by numeric integration = 31.99999909967284
    CPU time for vxc                                                     0.07 sec, wall time      0.07 sec, GPU time     72.74 ms
38.134 GB memory available on Device 0, block size = 256
    CPU time for vj and vk on Device 0                                   0.01 sec, wall time      0.01 sec, GPU time      6.58 ms
    CPU time for vj and vk                                               0.01 sec, wall time      0.01 sec, GPU time      9.58 ms
    CPU time for veff                                                    0.01 sec, wall time      0.01 sec, GPU time     10.87 ms
    CPU time for veff                                                    0.09 sec, wall time      0.09 sec, GPU time     85.77 ms
E1 = -508.49073324761196  Ecoul = 217.43200974396726  Exc = -26.851980573308584
    CPU time for cycle=3                                                 0.09 sec, wall time      0.09 sec, GPU time     93.60 ms
cycle= 3 E= -192.743289708865  delta_E= -1.84e-07  |g|= 0.000635  |ddm|= 0.00142
diis-c [-2.90613201e-08  5.53771585e-04  3.57040042e-01  6.42406186e-01]
    CPU time for DIIS                                                    0.00 sec, wall time      0.00 sec, GPU time      2.30 ms
    CPU time for eig                                                     0.00 sec, wall time      0.00 sec, GPU time      3.13 ms
  HOMO = -0.280397737886132  LUMO = 0.0798613780869599  gap = 9.80315 eV
324608 grids on Device 0
0 - 324608 grids are calculated on Device 0.
mem_info: unallocated=39778.69 MB, used=43.76 MB, free=213.24 MB, free_blocks=33
41934.577152 MB memory is available on Device 0, block_size None
    CPU time for eval rho on Device 0                                    0.05 sec, wall time      0.05 sec, GPU time     50.80 ms
    CPU time for eval vxc on Device 0                                    0.00 sec, wall time      0.00 sec, GPU time      0.94 ms
0 - 324608 grids are calculated on Device 0.
mem_info: unallocated=39770.69 MB, used=52.16 MB, free=204.84 MB, free_blocks=32
41917.379072 MB memory is available on Device 0, block_size None
    CPU time for eval integration on 0                                   0.02 sec, wall time      0.02 sec, GPU time     18.49 ms
    CPU time for nr_rks                                                  0.07 sec, wall time      0.07 sec, GPU time     72.59 ms
nelec by numeric integration = 31.999999099567916
    CPU time for vxc                                                     0.07 sec, wall time      0.07 sec, GPU time     72.74 ms
38.134 GB memory available on Device 0, block size = 256
    CPU time for vj and vk on Device 0                                   0.00 sec, wall time      0.00 sec, GPU time      3.15 ms
    CPU time for vj and vk                                               0.01 sec, wall time      0.01 sec, GPU time      6.30 ms
    CPU time for veff                                                    0.01 sec, wall time      0.01 sec, GPU time      7.62 ms
    CPU time for veff                                                    0.08 sec, wall time      0.08 sec, GPU time     82.53 ms
E1 = -508.48943729836617  Ecoul = 217.43053896925414  Exc = -26.851805823771777
    CPU time for cycle=4                                                 0.09 sec, wall time      0.09 sec, GPU time     90.18 ms
cycle= 4 E= -192.743289784795  delta_E= -7.59e-08  |g|= 0.000128  |ddm|= 0.000562
diis-c [-1.66798160e-09 -2.74160513e-02  1.22187936e-01  2.84684556e-01
  6.20543559e-01]
    CPU time for DIIS                                                    0.00 sec, wall time      0.00 sec, GPU time      2.60 ms
    CPU time for eig                                                     0.00 sec, wall time      0.00 sec, GPU time      3.14 ms
  HOMO = -0.280412530317761  LUMO = 0.0798608020721822  gap = 9.80354 eV
324608 grids on Device 0
0 - 324608 grids are calculated on Device 0.
mem_info: unallocated=39778.69 MB, used=43.82 MB, free=213.18 MB, free_blocks=34
41934.516736 MB memory is available on Device 0, block_size None
    CPU time for eval rho on Device 0                                    0.04 sec, wall time      0.04 sec, GPU time     36.61 ms
    CPU time for eval vxc on Device 0                                    0.00 sec, wall time      0.00 sec, GPU time      0.93 ms
0 - 324608 grids are calculated on Device 0.
mem_info: unallocated=39770.69 MB, used=52.22 MB, free=204.78 MB, free_blocks=34
41917.318656 MB memory is available on Device 0, block_size None
    CPU time for eval integration on 0                                   0.02 sec, wall time      0.02 sec, GPU time     18.30 ms
    CPU time for nr_rks                                                  0.06 sec, wall time      0.06 sec, GPU time     58.14 ms
nelec by numeric integration = 31.99999909955461
    CPU time for vxc                                                     0.06 sec, wall time      0.06 sec, GPU time     58.29 ms
38.134 GB memory available on Device 0, block size = 256
    CPU time for vj and vk on Device 0                                   0.00 sec, wall time      0.00 sec, GPU time      3.13 ms
    CPU time for vj and vk                                               0.01 sec, wall time      0.01 sec, GPU time      5.91 ms
    CPU time for veff                                                    0.01 sec, wall time      0.01 sec, GPU time      7.18 ms
    CPU time for veff                                                    0.07 sec, wall time      0.07 sec, GPU time     67.70 ms
E1 = -508.48973927909447  Ecoul = 217.4308808550481  Exc = -26.85184573195449
    CPU time for cycle=5                                                 0.08 sec, wall time      0.08 sec, GPU time     75.65 ms
cycle= 5 E= -192.743289787912  delta_E= -3.12e-09  |g|= 3.87e-05  |ddm|= 0.000152
diis-c [-4.85761972e-11 -1.40619596e-02  3.97368539e-02  1.03752114e-01
  3.18289037e-01  5.52283954e-01]
    CPU time for DIIS                                                    0.00 sec, wall time      0.00 sec, GPU time      2.93 ms
    CPU time for eig                                                     0.00 sec, wall time      0.00 sec, GPU time      3.14 ms
  HOMO = -0.280410282442168  LUMO = 0.0798606378284126  gap = 9.80347 eV
324608 grids on Device 0
0 - 324608 grids are calculated on Device 0.
mem_info: unallocated=39778.69 MB, used=43.87 MB, free=213.13 MB, free_blocks=36
41934.45632 MB memory is available on Device 0, block_size None
    CPU time for eval rho on Device 0                                    0.04 sec, wall time      0.04 sec, GPU time     37.16 ms
    CPU time for eval vxc on Device 0                                    0.00 sec, wall time      0.00 sec, GPU time      0.95 ms
0 - 324608 grids are calculated on Device 0.
mem_info: unallocated=39770.69 MB, used=52.28 MB, free=204.73 MB, free_blocks=34
41917.25824 MB memory is available on Device 0, block_size None
    CPU time for eval integration on 0                                   0.02 sec, wall time      0.02 sec, GPU time     18.49 ms
    CPU time for nr_rks                                                  0.06 sec, wall time      0.06 sec, GPU time     58.91 ms
nelec by numeric integration = 31.99999909956319
    CPU time for vxc                                                     0.06 sec, wall time      0.06 sec, GPU time     59.08 ms
38.134 GB memory available on Device 0, block size = 256
    CPU time for vj and vk on Device 0                                   0.00 sec, wall time      0.00 sec, GPU time      3.18 ms
    CPU time for vj and vk                                               0.01 sec, wall time      0.01 sec, GPU time      5.98 ms
    CPU time for veff                                                    0.01 sec, wall time      0.01 sec, GPU time      7.29 ms
    CPU time for veff                                                    0.07 sec, wall time      0.07 sec, GPU time     68.54 ms
E1 = -508.4897227881004  Ecoul = 217.43086012961953  Exc = -26.851841497869806
    CPU time for cycle=6                                                 0.08 sec, wall time      0.08 sec, GPU time     76.84 ms
cycle= 6 E= -192.743289788262  delta_E= -3.5e-10  |g|= 3.81e-06  |ddm|= 4.02e-05
diis-c [-4.41792228e-12 -3.78906442e-03  9.43267797e-03  2.55075833e-02
  8.54064030e-02  1.77450180e-01  7.05992220e-01]
    CPU time for DIIS                                                    0.00 sec, wall time      0.00 sec, GPU time      3.26 ms
    CPU time for eig                                                     0.00 sec, wall time      0.00 sec, GPU time      3.14 ms
  HOMO = -0.280409836087677  LUMO = 0.079860855451352  gap = 9.80346 eV
324608 grids on Device 0
0 - 324608 grids are calculated on Device 0.
mem_info: unallocated=39778.69 MB, used=43.93 MB, free=213.07 MB, free_blocks=34
41934.395904 MB memory is available on Device 0, block_size None
    CPU time for eval rho on Device 0                                    0.04 sec, wall time      0.04 sec, GPU time     37.24 ms
    CPU time for eval vxc on Device 0                                    0.00 sec, wall time      0.00 sec, GPU time      0.94 ms
0 - 324608 grids are calculated on Device 0.
mem_info: unallocated=39770.69 MB, used=52.33 MB, free=204.67 MB, free_blocks=32
41917.197824 MB memory is available on Device 0, block_size None
    CPU time for eval integration on 0                                   0.02 sec, wall time      0.02 sec, GPU time     18.59 ms
    CPU time for nr_rks                                                  0.06 sec, wall time      0.06 sec, GPU time     59.08 ms
nelec by numeric integration = 31.999999099561414
    CPU time for vxc                                                     0.06 sec, wall time      0.06 sec, GPU time     59.23 ms
38.134 GB memory available on Device 0, block size = 256
    CPU time for vj and vk on Device 0                                   0.01 sec, wall time      0.01 sec, GPU time      7.91 ms
    CPU time for vj and vk                                               0.01 sec, wall time      0.01 sec, GPU time     11.59 ms
    CPU time for veff                                                    0.01 sec, wall time      0.01 sec, GPU time     12.97 ms
    CPU time for veff                                                    0.08 sec, wall time      0.08 sec, GPU time     74.46 ms
E1 = -508.4896988357675  Ecoul = 217.43083439117407  Exc = -26.85183971176066
    CPU time for cycle=7                                                 0.08 sec, wall time      0.08 sec, GPU time     83.15 ms
cycle= 7 E= -192.743289788266  delta_E= -3.41e-12  |g|= 1.4e-06  |ddm|= 5.77e-06
    CPU time for SCF                                                     4.91 sec, wall time      0.90 sec, GPU time    898.34 ms
converged SCF energy = -192.743289788266


******** <class 'gpu4pyscf.grad.rhf.Gradients_Scanner'> for <class 'pyscf.scf.hf.DFRKS_Scanner'> ********
unit = Eh/Bohr
max_memory 4000 MB (current use 1114 MB)
Number of shells for each [l, nctr] group
    [0 1] : 14
    [0 3] : 6
    [0 5] : 4
    [1 1] : 10
    [1 3] : 4
    [2 1] : 4
    CPU time for Initialize q_cond                                       0.37 sec, wall time      0.01 sec, GPU time     13.33 ms
    CPU time for Get AO pairing                                          0.12 sec, wall time      0.00 sec, GPU time      0.92 ms
    CPU time for AO indices                                              0.00 sec, wall time      0.00 sec, GPU time      0.20 ms
    CPU time for Initialize GPU cache                                    0.00 sec, wall time      0.00 sec, GPU time      0.59 ms
    CPU time for gradients of h1e                                        2.31 sec, wall time      0.08 sec, GPU time     80.21 ms
324608 grids on Device 0
0 - 324608 grids are calculated on Device 0.
mem_info: unallocated=39778.69 MB, used=23.91 MB, free=233.10 MB, free_blocks=38
41955.395072 MB memory is available on Device 0, block_size None
    CPU time for gradient of vxc                                         0.21 sec, wall time      0.19 sec, GPU time    186.54 ms
    CPU time for grad vxc                                                0.36 sec, wall time      0.19 sec, GPU time    190.66 ms
    CPU time for vxc total                                               0.36 sec, wall time      0.19 sec, GPU time    191.03 ms
Number of shells for each [l, nprim] group
    [0 5] : 4
    [0 3] : 6
    [0 1] : 14
    [1 3] : 4
    [1 1] : 10
    [2 1] : 4
Number of shells for each [l, nprim] group
    [0 5] : 4
    [0 3] : 6
    [0 1] : 42
    [1 3] : 4
    [1 1] : 40
    [2 3] : 1
    [2 2] : 3
    [2 1] : 27
    [3 2] : 3
    [3 1] : 2
    [4 1] : 4
dm_factor shape (90, 16)
sp_batches = 1, ksh_batches = 11
41.711 GB free memory. nao_pair=4195 naux=480 batch_size=480 blksize=480
    CPU time for contract dm                                             0.02 sec, wall time      0.02 sec, GPU time     18.98 ms
int2c2e_kernel, nimgs = 1
    CPU time for contract int3c2e_ejk_ip1                                0.03 sec, wall time      0.03 sec, GPU time     45.78 ms
int2c2e_kernel, nimgs = 1
    CPU time for contract int2c2e_ip1                                    0.04 sec, wall time      0.04 sec, GPU time     21.72 ms
    CPU time for gradients of veff                                       0.46 sec, wall time      0.30 sec, GPU time    298.24 ms
Computing Gradients of NR-HF Coulomb repulsion
    CPU time for gradients of 2e part                                    0.46 sec, wall time      0.30 sec, GPU time    298.36 ms
    CPU time for gradients of electronic part                            2.78 sec, wall time      0.38 sec, GPU time    379.34 ms
    CPU time for SCF gradients                                           2.78 sec, wall time      0.38 sec, GPU time    379.81 ms
--------------- DFRKS_Scanner gradients ---------------
         x                y                z
0 O    -0.0001410673    -0.0000604906     0.0001356392
1 C     0.0003932124     0.0001887110     0.0003910490
2 C    -0.0003312315    -0.0002183710    -0.0002986582
3 C    -0.0000136001    -0.0001012526    -0.0002391064
4 H    -0.0001581027    -0.0000693745    -0.0000050369
5 H     0.0001331682     0.0001981827    -0.0001295241
6 H     0.0000699388    -0.0000225288     0.0001545830
7 H    -0.0000366806     0.0001021137     0.0000264078
8 H     0.0001078462     0.0000119339    -0.0000186840
9 H    -0.0000234462    -0.0000308085    -0.0000138620
----------------------------------------------
cycle 8: E = -192.743289788  dE = -8.65259e-06  norm(grad) = 0.000926558

Geometry optimization cycle 9
Cartesian coordinates (Angstrom)
 Atom        New coordinates             dX        dY        dZ
   O  -0.797055  -0.738542   0.055098    0.001951 -0.001160 -0.005588
   C   0.225689   0.082685  -0.470415    0.000585  0.003135 -0.001343
   C  -0.968532   0.657045   0.152007   -0.000742 -0.001986  0.000756
   C   1.555509   0.039127   0.220998   -0.000115  0.000674  0.000113
   H   0.267432   0.088587  -1.570417    0.002510  0.008287 -0.001298
   H  -1.759787   1.090120  -0.474705   -0.002158 -0.001444  0.002910
   H  -0.896355   1.078214   1.164392   -0.001756 -0.005970  0.002484
   H   2.174518   0.903170  -0.067263    0.006431 -0.006755 -0.008269
   H   2.104792  -0.875722  -0.050597   -0.007078 -0.006078  0.008463
   H   1.425475   0.047647   1.313027    0.000330  0.011993  0.000133
New geometry
   1 O     -0.797055033855  -0.738542259594   0.055097870312 AA   -1.506215720192  -1.395642602050   0.104119884936 Bohr
   2 C      0.225689299277   0.082685379227  -0.470414789073 AA    0.426490964878   0.156252721246  -0.888955116292 Bohr
   3 C     -0.968531635317   0.657045333282   0.152007116437 AA   -1.830259533727   1.241635731326   0.287251819050 Bohr
   4 C      1.555509427182   0.039127194453   0.220997960238 AA    2.939486801552   0.073939681539   0.417625618938 Bohr
   5 H      0.267431883801   0.088586720139  -1.570416542036 AA    0.505373017361   0.167404639336  -2.967657165935 Bohr
   6 H     -1.759787246071   1.090120361265  -0.474705090150 AA   -3.325515932577   2.060028925603  -0.897062610321 Bohr
   7 H     -0.896354810488   1.078213831092   1.164392023583 AA   -1.693865102258   2.037528844482   2.200382026200 Bohr
   8 H      2.174518324373   0.903169659510  -0.067262953463 AA    4.109244085913   1.706743300490  -0.127108560374 Bohr
   9 H      2.104791528402  -0.875721655031  -0.050596951972 AA    3.977479537985  -1.654874089359  -0.095614381966 Bohr
  10 H      1.425475466239   0.047647064282   1.313026728653 AA    2.693758228479   0.090039902133   2.481260911388 Bohr


******** <class 'pyscf.scf.hf.DFRKS_Scanner'> ********
method = DFRKS_Scanner
initial guess = minao
damping factor = None
level_shift factor = None
DIIS = <class 'gpu4pyscf.scf.diis.CDIIS'>
diis_start_cycle = 1
diis_space = 8
diis_damp = 0
SCF conv_tol = 1e-10
SCF conv_tol_grad = None
SCF max_cycles = 50
direct_scf = False
XC library gpu4pyscf.dft.libxc version 7.0.0 (CUDA)
    unable to decode the reference due to https://github.com/NVIDIA/cuda-python/issues/29
XC functionals = PBE0
radial grids: 
Treutler-Ahlrichs [JCP 102, 346 (1995); DOI:10.1063/1.469408] (M4) radial grids

becke partition: Becke, JCP 88, 2547 (1988); DOI:10.1063/1.454033
pruning grids: <function nwchem_prune at 0x14b55ceca7a0>
grids dens level: 3
symmetrized grids: False
atomic radii adjust function: <function treutler_atomic_radii_adjust at 0x14b55ceca840>
User specified grid scheme (99, 590)
small_rho_cutoff = 0
Set gradient conv threshold to 1e-05
Number of shells for each [l, nprim] group
    [0 5] : 4
    [0 3] : 6
    [0 1] : 14
    [1 3] : 4
    [1 1] : 10
    [2 1] : 4
sp_blocks = 21, ksh_blocks = 1, shm_size = 59512 B
    CPU time for processing contract_int3c2e_auxvec                      0.00 sec, wall time      0.00 sec, GPU time      2.35 ms
Number of shells for each [l, nprim] group
    [0 5] : 4
    [0 3] : 6
    [0 1] : 14
    [1 3] : 4
    [1 1] : 10
    [2 1] : 4
Number of shells for each [l, nprim] group
    [0 5] : 4
    [0 3] : 6
    [0 1] : 14
    [1 3] : 4
    [1 1] : 10
    [2 1] : 4
    CPU time for hcore                                                   1.32 sec, wall time      0.04 sec, GPU time     42.26 ms
atom O rad-grids = 99, ang-grids = [ 50  50  50  50  50  50  50  50  50  50  50  50  50  50  50  50  50  50
  50  50  50  50  50  50  50  50  50  50  50  50  86  86  86  86  86  86
  86  86  86  86  86  86  86 434 434 434 434 434 434 434 434 590 590 590
 590 590 590 590 590 590 590 590 590 590 590 590 590 590 590 590 590 590
 590 590 590 590 590 590 434 434 434 434 434 434 434 434 434 434 434 434
 434 434 434 434 434 434 434 434 434]
atom C rad-grids = 99, ang-grids = [ 50  50  50  50  50  50  50  50  50  50  50  50  50  50  50  50  50  50
  50  50  50  50  50  50  50  50  50  50  50  50  86  86  86  86  86  86
  86  86  86  86  86  86 434 434 434 434 434 434 434 434 434 590 590 590
 590 590 590 590 590 590 590 590 590 590 590 590 590 590 590 590 590 590
 590 590 590 590 590 434 434 434 434 434 434 434 434 434 434 434 434 434
 434 434 434 434 434 434 434 434 434]
atom H rad-grids = 99, ang-grids = [ 50  50  50  50  50  50  50  50  50  50  50  50  50  50  50  50  50  50
  50  50  50  50  50  50  50  50  50  50  50  50  86  86  86  86  86  86
  86 434 434 434 434 434 434 434 434 434 434 590 590 590 590 590 590 590
 590 590 590 590 590 590 590 590 590 590 590 590 590 590 590 590 590 590
 590 590 434 434 434 434 434 434 434 434 434 434 434 434 434 434 434 434
 434 434 434 434 434 434 434 434 434]
    CPU time for generating atomic grids                                 0.12 sec, wall time      0.01 sec, GPU time      6.28 ms
Padding 164 grids
    CPU time for sorting grids                                           0.00 sec, wall time      0.00 sec, GPU time      0.96 ms
tot grids = 324608
    CPU time for setting up grids                                        0.12 sec, wall time      0.01 sec, GPU time      7.34 ms
Number of shells for each [l, nctr] group
    [0 1] : 14
    [0 3] : 6
    [0 5] : 4
    [1 1] : 10
    [1 3] : 4
    [2 1] : 4
324608 grids on Device 0
0 - 324608 grids are calculated on Device 0.
mem_info: unallocated=39778.69 MB, used=30.35 MB, free=226.65 MB, free_blocks=38
41948.634112 MB memory is available on Device 0, block_size None
    CPU time for eval rho on Device 0                                    1.20 sec, wall time      0.04 sec, GPU time     39.01 ms
    CPU time for eval vxc on Device 0                                    0.05 sec, wall time      0.00 sec, GPU time      1.01 ms
0 - 324608 grids are calculated on Device 0.
mem_info: unallocated=39770.69 MB, used=38.77 MB, free=218.23 MB, free_blocks=35
41931.421696 MB memory is available on Device 0, block_size None
    CPU time for eval integration on 0                                   0.02 sec, wall time      0.02 sec, GPU time     18.52 ms
    CPU time for nr_rks                                                  1.39 sec, wall time      0.06 sec, GPU time     61.39 ms
nelec by numeric integration = 32.000116321574886
    CPU time for vxc                                                     1.51 sec, wall time      0.07 sec, GPU time     68.84 ms
Build CDERI ...
Psi4 predefined JKFIT basis set def2-svp-jkfit for HF
Default auxbasis def2-svp-jkfit is applied universally
num shells = 136, num cGTOs = 410
    CPU time for 2c2e                                                    0.36 sec, wall time      0.02 sec, GPU time     24.43 ms
Number of shells for each [l, nctr] group
    [0 1] : 14
    [0 3] : 6
    [0 5] : 4
    [1 1] : 10
    [1 3] : 4
    [2 1] : 4
Number of shells for each [l, nctr] group
    [0 1] : 42
    [0 3] : 6
    [0 5] : 4
    [1 1] : 40
    [1 3] : 4
    [2 1] : 27
    [2 2] : 3
    [2 3] : 1
    [3 1] : 2
    [3 2] : 3
    [4 1] : 4
    CPU time for Initialize q_cond                                       0.62 sec, wall time      0.02 sec, GPU time     20.46 ms
    CPU time for Get AO pairing                                          0.00 sec, wall time      0.00 sec, GPU time      0.59 ms
    CPU time for AO indices                                              0.00 sec, wall time      0.00 sec, GPU time      0.20 ms
    CPU time for Aux AO indices                                          0.00 sec, wall time      0.00 sec, GPU time      0.37 ms
    CPU time for Get AO pairs                                            0.00 sec, wall time      0.00 sec, GPU time      0.84 ms
    CPU time for prepare intopt                                          0.81 sec, wall time      0.03 sec, GPU time     26.09 ms
size of aux basis 410
Saving CDERI on GPU
CDERI size 0.011 GB on Device 0
    CPU time for Initialize GPU cache on Device 0                        0.00 sec, wall time      0.00 sec, GPU time      0.26 ms
    CPU time for solve 5 / 21 on Device 0                                0.01 sec, wall time      0.00 sec, GPU time      4.18 ms
    CPU time for transfer data for 5 / 21 on Device 0                    0.00 sec, wall time      0.00 sec, GPU time      0.12 ms
    CPU time for solve 2 / 21 on Device 0                                0.00 sec, wall time      0.00 sec, GPU time      3.31 ms
    CPU time for transfer data for 2 / 21 on Device 0                    0.00 sec, wall time      0.00 sec, GPU time      0.11 ms
    CPU time for solve 4 / 21 on Device 0                                0.00 sec, wall time      0.00 sec, GPU time      3.33 ms
    CPU time for transfer data for 4 / 21 on Device 0                    0.00 sec, wall time      0.00 sec, GPU time      0.11 ms
    CPU time for solve 12 / 21 on Device 0                               0.00 sec, wall time      0.00 sec, GPU time      3.25 ms
    CPU time for transfer data for 12 / 21 on Device 0                   0.00 sec, wall time      0.00 sec, GPU time      0.07 ms
    CPU time for solve 3 / 21 on Device 0                                0.00 sec, wall time      0.00 sec, GPU time      2.09 ms
    CPU time for transfer data for 3 / 21 on Device 0                    0.00 sec, wall time      0.00 sec, GPU time      0.07 ms
    CPU time for solve 11 / 21 on Device 0                               0.00 sec, wall time      0.00 sec, GPU time      2.29 ms
    CPU time for transfer data for 11 / 21 on Device 0                   0.00 sec, wall time      0.00 sec, GPU time      0.07 ms
    CPU time for solve 14 / 21 on Device 0                               0.00 sec, wall time      0.00 sec, GPU time      3.03 ms
    CPU time for transfer data for 14 / 21 on Device 0                   0.00 sec, wall time      0.00 sec, GPU time      0.07 ms
    CPU time for solve 17 / 21 on Device 0                               0.00 sec, wall time      0.00 sec, GPU time      2.25 ms
    CPU time for transfer data for 17 / 21 on Device 0                   0.00 sec, wall time      0.00 sec, GPU time      0.07 ms
    CPU time for solve 1 / 21 on Device 0                                0.00 sec, wall time      0.00 sec, GPU time      2.05 ms
    CPU time for transfer data for 1 / 21 on Device 0                    0.00 sec, wall time      0.00 sec, GPU time      0.07 ms
    CPU time for solve 0 / 21 on Device 0                                0.00 sec, wall time      0.00 sec, GPU time      2.05 ms
    CPU time for transfer data for 0 / 21 on Device 0                    0.00 sec, wall time      0.00 sec, GPU time      0.07 ms
    CPU time for solve 16 / 21 on Device 0                               0.00 sec, wall time      0.00 sec, GPU time      2.16 ms
    CPU time for transfer data for 16 / 21 on Device 0                   0.00 sec, wall time      0.00 sec, GPU time      0.07 ms
    CPU time for solve 8 / 21 on Device 0                                0.00 sec, wall time      0.00 sec, GPU time      2.32 ms
    CPU time for transfer data for 8 / 21 on Device 0                    0.00 sec, wall time      0.00 sec, GPU time      0.07 ms
    CPU time for solve 10 / 21 on Device 0                               0.00 sec, wall time      0.00 sec, GPU time      2.10 ms
    CPU time for transfer data for 10 / 21 on Device 0                   0.00 sec, wall time      0.00 sec, GPU time      0.07 ms
    CPU time for solve 7 / 21 on Device 0                                0.00 sec, wall time      0.00 sec, GPU time      2.41 ms
    CPU time for transfer data for 7 / 21 on Device 0                    0.00 sec, wall time      0.00 sec, GPU time      0.07 ms
    CPU time for solve 20 / 21 on Device 0                               0.00 sec, wall time      0.00 sec, GPU time      2.72 ms
    CPU time for transfer data for 20 / 21 on Device 0                   0.00 sec, wall time      0.00 sec, GPU time      0.07 ms
    CPU time for solve 19 / 21 on Device 0                               0.00 sec, wall time      0.00 sec, GPU time      2.17 ms
    CPU time for transfer data for 19 / 21 on Device 0                   0.00 sec, wall time      0.00 sec, GPU time      0.07 ms
    CPU time for solve 15 / 21 on Device 0                               0.00 sec, wall time      0.00 sec, GPU time      2.10 ms
    CPU time for transfer data for 15 / 21 on Device 0                   0.00 sec, wall time      0.00 sec, GPU time      0.07 ms
    CPU time for solve 13 / 21 on Device 0                               0.00 sec, wall time      0.00 sec, GPU time      2.15 ms
    CPU time for transfer data for 13 / 21 on Device 0                   0.00 sec, wall time      0.00 sec, GPU time      0.07 ms
    CPU time for solve 6 / 21 on Device 0                                0.00 sec, wall time      0.00 sec, GPU time      2.05 ms
    CPU time for transfer data for 6 / 21 on Device 0                    0.00 sec, wall time      0.00 sec, GPU time      0.07 ms
    CPU time for solve 9 / 21 on Device 0                                0.00 sec, wall time      0.00 sec, GPU time      2.12 ms
    CPU time for transfer data for 9 / 21 on Device 0                    0.00 sec, wall time      0.00 sec, GPU time      0.07 ms
    CPU time for solve 18 / 21 on Device 0                               0.00 sec, wall time      0.00 sec, GPU time      2.16 ms
    CPU time for transfer data for 18 / 21 on Device 0                   0.00 sec, wall time      0.00 sec, GPU time      0.07 ms
    CPU time for cholesky_eri                                            0.91 sec, wall time      0.08 sec, GPU time     81.81 ms
    CPU time for init jk                                                 1.27 sec, wall time      0.11 sec, GPU time    106.34 ms
38.135 GB memory available on Device 0, block size = 256
    CPU time for vj and vk on Device 0                                   0.00 sec, wall time      0.00 sec, GPU time      2.83 ms
    CPU time for vj and vk                                               0.00 sec, wall time      0.00 sec, GPU time      4.15 ms
    CPU time for veff                                                    1.27 sec, wall time      0.11 sec, GPU time    111.35 ms
E1 = -508.50075697123805  Ecoul = 217.43657728228015  Exc = -26.85189475047143
init E= -192.743249284879
cond(S) = 3072.665752930541
    CPU time for SCF initialization                                      4.11 sec, wall time      0.23 sec, GPU time    226.56 ms
    CPU time for DIIS                                                    0.00 sec, wall time      0.00 sec, GPU time      0.09 ms
    CPU time for eig                                                     0.00 sec, wall time      0.00 sec, GPU time      2.52 ms
  HOMO = -0.280412045538821  LUMO = 0.0799044317788737  gap = 9.80471 eV
324608 grids on Device 0
0 - 324608 grids are calculated on Device 0.
mem_info: unallocated=39778.69 MB, used=43.53 MB, free=213.47 MB, free_blocks=35
41934.818816 MB memory is available on Device 0, block_size None
    CPU time for eval rho on Device 0                                    0.04 sec, wall time      0.04 sec, GPU time     36.96 ms
    CPU time for eval vxc on Device 0                                    0.00 sec, wall time      0.00 sec, GPU time      1.01 ms
0 - 324608 grids are calculated on Device 0.
mem_info: unallocated=39770.69 MB, used=51.93 MB, free=205.07 MB, free_blocks=35
41917.620736 MB memory is available on Device 0, block_size None
    CPU time for eval integration on 0                                   0.02 sec, wall time      0.02 sec, GPU time     18.54 ms
    CPU time for nr_rks                                                  0.06 sec, wall time      0.06 sec, GPU time     59.02 ms
nelec by numeric integration = 31.99999899340887
    CPU time for vxc                                                     0.06 sec, wall time      0.06 sec, GPU time     59.18 ms
38.134 GB memory available on Device 0, block size = 256
    CPU time for vj and vk on Device 0                                   0.00 sec, wall time      0.00 sec, GPU time      3.16 ms
    CPU time for vj and vk                                               0.01 sec, wall time      0.01 sec, GPU time      5.97 ms
    CPU time for veff                                                    0.01 sec, wall time      0.01 sec, GPU time      7.30 ms
    CPU time for veff                                                    0.07 sec, wall time      0.07 sec, GPU time     68.69 ms
E1 = -508.5008208667788  Ecoul = 217.43664314693075  Exc = -26.851941786480406
    CPU time for cycle=1                                                 0.07 sec, wall time      0.07 sec, GPU time     73.56 ms
cycle= 1 E= -192.743294351778  delta_E= -4.51e-05  |g|= 0.00124  |ddm|= 0.0188
diis-c [-1.53239154e-06  1.00000000e+00]
    CPU time for DIIS                                                    0.00 sec, wall time      0.00 sec, GPU time      1.77 ms
    CPU time for eig                                                     0.00 sec, wall time      0.00 sec, GPU time      3.26 ms
  HOMO = -0.280334178118232  LUMO = 0.0798810719110817  gap = 9.80196 eV
324608 grids on Device 0
0 - 324608 grids are calculated on Device 0.
mem_info: unallocated=39778.69 MB, used=43.64 MB, free=213.36 MB, free_blocks=33
41934.697984 MB memory is available on Device 0, block_size None
    CPU time for eval rho on Device 0                                    0.04 sec, wall time      0.04 sec, GPU time     36.69 ms
    CPU time for eval vxc on Device 0                                    0.00 sec, wall time      0.00 sec, GPU time      0.95 ms
0 - 324608 grids are calculated on Device 0.
mem_info: unallocated=39770.69 MB, used=52.05 MB, free=204.96 MB, free_blocks=33
41917.499904 MB memory is available on Device 0, block_size None
    CPU time for eval integration on 0                                   0.02 sec, wall time      0.02 sec, GPU time     19.02 ms
    CPU time for nr_rks                                                  0.06 sec, wall time      0.06 sec, GPU time     59.00 ms
nelec by numeric integration = 31.999998992929573
    CPU time for vxc                                                     0.06 sec, wall time      0.06 sec, GPU time     59.15 ms
38.134 GB memory available on Device 0, block size = 256
    CPU time for vj and vk on Device 0                                   0.00 sec, wall time      0.00 sec, GPU time      3.14 ms
    CPU time for vj and vk                                               0.01 sec, wall time      0.01 sec, GPU time      5.93 ms
    CPU time for veff                                                    0.01 sec, wall time      0.01 sec, GPU time      7.24 ms
    CPU time for veff                                                    0.07 sec, wall time      0.07 sec, GPU time     68.59 ms
E1 = -508.49895692829693  Ecoul = 217.43453512791774  Exc = -26.851698272787168
    CPU time for cycle=2                                                 0.08 sec, wall time      0.08 sec, GPU time     75.84 ms
cycle= 2 E= -192.743294918616  delta_E= -5.67e-07  |g|= 0.000887  |ddm|= 0.00235
diis-c [-3.37001211e-07  3.80107939e-01  6.19892061e-01]
    CPU time for DIIS                                                    0.00 sec, wall time      0.00 sec, GPU time      1.99 ms
    CPU time for eig                                                     0.00 sec, wall time      0.00 sec, GPU time      3.23 ms
  HOMO = -0.280466934022693  LUMO = 0.0798873902412937  gap = 9.80574 eV
324608 grids on Device 0
0 - 324608 grids are calculated on Device 0.
mem_info: unallocated=39778.69 MB, used=43.70 MB, free=213.30 MB, free_blocks=34
41934.637568 MB memory is available on Device 0, block_size None
    CPU time for eval rho on Device 0                                    0.04 sec, wall time      0.04 sec, GPU time     36.74 ms
    CPU time for eval vxc on Device 0                                    0.00 sec, wall time      0.00 sec, GPU time      0.94 ms
0 - 324608 grids are calculated on Device 0.
mem_info: unallocated=39770.69 MB, used=52.10 MB, free=204.90 MB, free_blocks=34
41917.439488 MB memory is available on Device 0, block_size None
    CPU time for eval integration on 0                                   0.02 sec, wall time      0.02 sec, GPU time     18.38 ms
    CPU time for nr_rks                                                  0.06 sec, wall time      0.06 sec, GPU time     58.37 ms
nelec by numeric integration = 31.999998993377446
    CPU time for vxc                                                     0.06 sec, wall time      0.06 sec, GPU time     58.53 ms
38.134 GB memory available on Device 0, block size = 256
    CPU time for vj and vk on Device 0                                   0.00 sec, wall time      0.00 sec, GPU time      4.92 ms
    CPU time for vj and vk                                               0.01 sec, wall time      0.01 sec, GPU time      8.33 ms
    CPU time for veff                                                    0.01 sec, wall time      0.01 sec, GPU time      9.71 ms
    CPU time for veff                                                    0.07 sec, wall time      0.07 sec, GPU time     70.43 ms
E1 = -508.5012007990568  Ecoul = 217.43708324906248  Exc = -26.85200263248332
    CPU time for cycle=3                                                 0.08 sec, wall time      0.08 sec, GPU time     77.94 ms
cycle= 3 E= -192.743295027927  delta_E= -1.09e-07  |g|= 0.000546  |ddm|= 0.00114
diis-c [-1.40158811e-08 -3.31408454e-02  3.77554483e-01  6.55586362e-01]
    CPU time for DIIS                                                    0.00 sec, wall time      0.00 sec, GPU time      2.32 ms
    CPU time for eig                                                     0.00 sec, wall time      0.00 sec, GPU time      3.28 ms
  HOMO = -0.280397302057121  LUMO = 0.0798831820901238  gap = 9.80373 eV
324608 grids on Device 0
0 - 324608 grids are calculated on Device 0.
mem_info: unallocated=39778.69 MB, used=43.76 MB, free=213.24 MB, free_blocks=33
41934.577152 MB memory is available on Device 0, block_size None
    CPU time for eval rho on Device 0                                    0.04 sec, wall time      0.04 sec, GPU time     38.49 ms
    CPU time for eval vxc on Device 0                                    0.00 sec, wall time      0.00 sec, GPU time      1.14 ms
0 - 324608 grids are calculated on Device 0.
mem_info: unallocated=39770.69 MB, used=52.16 MB, free=204.84 MB, free_blocks=31
41917.379072 MB memory is available on Device 0, block_size None
    CPU time for eval integration on 0                                   0.02 sec, wall time      0.02 sec, GPU time     18.97 ms
    CPU time for nr_rks                                                  0.06 sec, wall time      0.06 sec, GPU time     61.43 ms
nelec by numeric integration = 31.999998993292564
    CPU time for vxc                                                     0.06 sec, wall time      0.06 sec, GPU time     61.60 ms
38.134 GB memory available on Device 0, block size = 256
    CPU time for vj and vk on Device 0                                   0.01 sec, wall time      0.01 sec, GPU time      6.51 ms
    CPU time for vj and vk                                               0.01 sec, wall time      0.01 sec, GPU time      9.63 ms
    CPU time for veff                                                    0.01 sec, wall time      0.01 sec, GPU time     10.98 ms
    CPU time for veff                                                    0.08 sec, wall time      0.08 sec, GPU time     74.76 ms
E1 = -508.5000976490787  Ecoul = 217.43583021899335  Exc = -26.851852808684658
    CPU time for cycle=4                                                 0.08 sec, wall time      0.08 sec, GPU time     82.62 ms
cycle= 4 E= -192.743295084219  delta_E= -5.63e-08  |g|= 0.000105  |ddm|= 0.00047
diis-c [-9.46424641e-10 -3.28023993e-02  1.60427700e-01  3.17244555e-01
  5.55130144e-01]
    CPU time for DIIS                                                    0.00 sec, wall time      0.00 sec, GPU time      2.75 ms
    CPU time for eig                                                     0.00 sec, wall time      0.00 sec, GPU time      3.29 ms
  HOMO = -0.280409462298376  LUMO = 0.0798845664494333  gap = 9.80410 eV
324608 grids on Device 0
0 - 324608 grids are calculated on Device 0.
mem_info: unallocated=39778.69 MB, used=43.82 MB, free=213.18 MB, free_blocks=34
41934.516736 MB memory is available on Device 0, block_size None
    CPU time for eval rho on Device 0                                    0.05 sec, wall time      0.05 sec, GPU time     51.99 ms
    CPU time for eval vxc on Device 0                                    0.00 sec, wall time      0.00 sec, GPU time      0.99 ms
0 - 324608 grids are calculated on Device 0.
mem_info: unallocated=39770.69 MB, used=52.22 MB, free=204.78 MB, free_blocks=34
41917.318656 MB memory is available on Device 0, block_size None
    CPU time for eval integration on 0                                   0.02 sec, wall time      0.02 sec, GPU time     18.60 ms
    CPU time for nr_rks                                                  0.07 sec, wall time      0.07 sec, GPU time     74.12 ms
nelec by numeric integration = 31.99999899325418
    CPU time for vxc                                                     0.07 sec, wall time      0.07 sec, GPU time     74.28 ms
38.134 GB memory available on Device 0, block size = 256
    CPU time for vj and vk on Device 0                                   0.01 sec, wall time      0.01 sec, GPU time      6.54 ms
    CPU time for vj and vk                                               0.01 sec, wall time      0.01 sec, GPU time      9.65 ms
    CPU time for veff                                                    0.01 sec, wall time      0.01 sec, GPU time     10.98 ms
    CPU time for veff                                                    0.09 sec, wall time      0.09 sec, GPU time     87.62 ms
E1 = -508.50024094479994  Ecoul = 217.43599364705418  Exc = -26.85187294330636
    CPU time for cycle=5                                                 0.10 sec, wall time      0.10 sec, GPU time     95.90 ms
cycle= 5 E= -192.743295086502  delta_E= -2.28e-09  |g|= 2.51e-05  |ddm|= 0.00012
diis-c [-3.00685805e-11 -1.32610181e-02  4.83141768e-02  1.00175180e-01
  2.61777818e-01  6.02993844e-01]
    CPU time for DIIS                                                    0.00 sec, wall time      0.00 sec, GPU time      3.06 ms
    CPU time for eig                                                     0.00 sec, wall time      0.00 sec, GPU time      3.24 ms
  HOMO = -0.280408233860372  LUMO = 0.0798841587549366  gap = 9.80406 eV
324608 grids on Device 0
0 - 324608 grids are calculated on Device 0.
mem_info: unallocated=39778.69 MB, used=43.87 MB, free=213.13 MB, free_blocks=34
41934.45632 MB memory is available on Device 0, block_size None
    CPU time for eval rho on Device 0                                    0.04 sec, wall time      0.04 sec, GPU time     36.87 ms
    CPU time for eval vxc on Device 0                                    0.00 sec, wall time      0.00 sec, GPU time      0.97 ms
0 - 324608 grids are calculated on Device 0.
mem_info: unallocated=39770.69 MB, used=52.28 MB, free=204.73 MB, free_blocks=34
41917.25824 MB memory is available on Device 0, block_size None
    CPU time for eval integration on 0                                   0.02 sec, wall time      0.02 sec, GPU time     18.73 ms
    CPU time for nr_rks                                                  0.06 sec, wall time      0.06 sec, GPU time     58.92 ms
nelec by numeric integration = 31.999998993262135
    CPU time for vxc                                                     0.06 sec, wall time      0.06 sec, GPU time     59.08 ms
38.134 GB memory available on Device 0, block size = 256
    CPU time for vj and vk on Device 0                                   0.00 sec, wall time      0.00 sec, GPU time      3.16 ms
    CPU time for vj and vk                                               0.01 sec, wall time      0.01 sec, GPU time      6.01 ms
    CPU time for veff                                                    0.01 sec, wall time      0.01 sec, GPU time      7.33 ms
    CPU time for veff                                                    0.07 sec, wall time      0.07 sec, GPU time     68.58 ms
E1 = -508.50024719904206  Ecoul = 217.43599919885332  Exc = -26.851872241012455
    CPU time for cycle=6                                                 0.08 sec, wall time      0.08 sec, GPU time     77.22 ms
cycle= 6 E= -192.743295086651  delta_E= -1.49e-10  |g|= 2.94e-06  |ddm|= 2.71e-05
diis-c [-3.05909757e-12 -3.10895953e-03  1.02965842e-02  2.15768300e-02
  6.33337550e-02  1.85212628e-01  7.22689162e-01]
    CPU time for DIIS                                                    0.00 sec, wall time      0.00 sec, GPU time      3.49 ms
    CPU time for eig                                                     0.00 sec, wall time      0.00 sec, GPU time      3.28 ms
  HOMO = -0.28040791894946  LUMO = 0.0798842296243088  gap = 9.80405 eV
324608 grids on Device 0
0 - 324608 grids are calculated on Device 0.
mem_info: unallocated=39778.69 MB, used=43.93 MB, free=213.07 MB, free_blocks=36
41934.395904 MB memory is available on Device 0, block_size None
    CPU time for eval rho on Device 0                                    0.04 sec, wall time      0.04 sec, GPU time     36.64 ms
    CPU time for eval vxc on Device 0                                    0.00 sec, wall time      0.00 sec, GPU time      0.95 ms
0 - 324608 grids are calculated on Device 0.
mem_info: unallocated=39770.69 MB, used=52.33 MB, free=204.67 MB, free_blocks=35
41917.197824 MB memory is available on Device 0, block_size None
    CPU time for eval integration on 0                                   0.02 sec, wall time      0.02 sec, GPU time     18.30 ms
    CPU time for nr_rks                                                  0.06 sec, wall time      0.06 sec, GPU time     58.21 ms
nelec by numeric integration = 31.999998993261958
    CPU time for vxc                                                     0.06 sec, wall time      0.06 sec, GPU time     58.36 ms
38.134 GB memory available on Device 0, block size = 256
    CPU time for vj and vk on Device 0                                   0.00 sec, wall time      0.00 sec, GPU time      3.10 ms
    CPU time for vj and vk                                               0.01 sec, wall time      0.01 sec, GPU time      5.86 ms
    CPU time for veff                                                    0.01 sec, wall time      0.01 sec, GPU time      7.15 ms
    CPU time for veff                                                    0.07 sec, wall time      0.07 sec, GPU time     67.71 ms
E1 = -508.50023336737337  Ecoul = 217.43598457605663  Exc = -26.851871449886364
    CPU time for cycle=7                                                 0.08 sec, wall time      0.08 sec, GPU time     76.68 ms
cycle= 7 E= -192.743295086652  delta_E= -1.93e-12  |g|= 1.29e-06  |ddm|= 4.56e-06
    CPU time for SCF                                                     4.67 sec, wall time      0.79 sec, GPU time    788.27 ms
converged SCF energy = -192.743295086652


******** <class 'gpu4pyscf.grad.rhf.Gradients_Scanner'> for <class 'pyscf.scf.hf.DFRKS_Scanner'> ********
unit = Eh/Bohr
max_memory 4000 MB (current use 1115 MB)
Number of shells for each [l, nctr] group
    [0 1] : 14
    [0 3] : 6
    [0 5] : 4
    [1 1] : 10
    [1 3] : 4
    [2 1] : 4
    CPU time for Initialize q_cond                                       0.50 sec, wall time      0.02 sec, GPU time     15.90 ms
    CPU time for Get AO pairing                                          0.00 sec, wall time      0.00 sec, GPU time      1.89 ms
    CPU time for AO indices                                              0.00 sec, wall time      0.00 sec, GPU time      0.51 ms
    CPU time for Initialize GPU cache                                    0.12 sec, wall time      0.00 sec, GPU time      0.88 ms
    CPU time for gradients of h1e                                        2.32 sec, wall time      0.08 sec, GPU time     79.75 ms
324608 grids on Device 0
0 - 324608 grids are calculated on Device 0.
mem_info: unallocated=39778.69 MB, used=23.91 MB, free=233.10 MB, free_blocks=35
41955.395072 MB memory is available on Device 0, block_size None
    CPU time for gradient of vxc                                         0.19 sec, wall time      0.18 sec, GPU time    184.19 ms
    CPU time for grad vxc                                                0.21 sec, wall time      0.19 sec, GPU time    186.21 ms
    CPU time for vxc total                                               0.21 sec, wall time      0.19 sec, GPU time    186.82 ms
Number of shells for each [l, nprim] group
    [0 5] : 4
    [0 3] : 6
    [0 1] : 14
    [1 3] : 4
    [1 1] : 10
    [2 1] : 4
Number of shells for each [l, nprim] group
    [0 5] : 4
    [0 3] : 6
    [0 1] : 42
    [1 3] : 4
    [1 1] : 40
    [2 3] : 1
    [2 2] : 3
    [2 1] : 27
    [3 2] : 3
    [3 1] : 2
    [4 1] : 4
dm_factor shape (90, 16)
sp_batches = 1, ksh_batches = 11
41.711 GB free memory. nao_pair=4195 naux=480 batch_size=480 blksize=480
    CPU time for contract dm                                             0.03 sec, wall time      0.03 sec, GPU time     30.74 ms
int2c2e_kernel, nimgs = 1
    CPU time for contract int3c2e_ejk_ip1                                0.03 sec, wall time      0.03 sec, GPU time     48.80 ms
int2c2e_kernel, nimgs = 1
    CPU time for contract int2c2e_ip1                                    0.04 sec, wall time      0.04 sec, GPU time     21.56 ms
    CPU time for gradients of veff                                       0.34 sec, wall time      0.32 sec, GPU time    321.47 ms
Computing Gradients of NR-HF Coulomb repulsion
    CPU time for gradients of 2e part                                    0.34 sec, wall time      0.32 sec, GPU time    321.59 ms
    CPU time for gradients of electronic part                            2.66 sec, wall time      0.40 sec, GPU time    402.15 ms
    CPU time for SCF gradients                                           2.66 sec, wall time      0.40 sec, GPU time    402.61 ms
--------------- DFRKS_Scanner gradients ---------------
         x                y                z
0 O    -0.0001254288    -0.0000394124     0.0001022787
1 C     0.0002001268     0.0002131362     0.0002812507
2 C    -0.0001859047    -0.0002738794    -0.0002236035
3 C    -0.0000114811    -0.0001216783    -0.0001440461
4 H    -0.0000594134    -0.0000186968    -0.0000292661
5 H     0.0000809291     0.0001437870    -0.0000949259
6 H     0.0000621181     0.0000037715     0.0001296922
7 H    -0.0000141970     0.0000636069    -0.0000116302
8 H     0.0000630812     0.0000012336    -0.0000043464
9 H    -0.0000096982     0.0000260215    -0.0000029365
----------------------------------------------
cycle 9: E = -192.743295087  dE = -5.29839e-06  norm(grad) = 0.000677059

Geometry optimization cycle 10
Cartesian coordinates (Angstrom)
 Atom        New coordinates             dX        dY        dZ
   O  -0.795848  -0.738664   0.053190    0.001207 -0.000122 -0.001908
   C   0.225913   0.083834  -0.471575    0.000224  0.001148 -0.001160
   C  -0.968367   0.656752   0.152182    0.000165 -0.000294  0.000175
   C   1.555276   0.039549   0.221047   -0.000233  0.000422  0.000049
   H   0.268565   0.091218  -1.571498    0.001133  0.002631 -0.001082
   H  -1.761492   1.088739  -0.472815   -0.001705 -0.001381  0.001890
   H  -0.896089   1.076931   1.164838    0.000266 -0.001283  0.000446
   H   2.177018   0.900846  -0.069316    0.002500 -0.002323 -0.002053
   H   2.101966  -0.877672  -0.047704   -0.002826 -0.001950  0.002893
   H   1.424715   0.051277   1.312971   -0.000760  0.003630 -0.000056
New geometry
   1 O     -0.795847920570  -0.738664075268   0.053189819534 AA   -1.503934606681  -1.395872800311   0.100514191534 Bohr
   2 C      0.225913431655   0.083833710407  -0.471574698572 AA    0.426914513688   0.158422752675  -0.891147027575 Bohr
   3 C     -0.968366867046   0.656751692592   0.152182151177 AA   -1.829948166820   1.241080830843   0.287582586771 Bohr
   4 C      1.555276397427   0.039549131017   0.221046903980 AA    2.939046439138   0.074737026087   0.417718109206 Bohr
   5 H      0.268564769303   0.091217694735  -1.571498183914 AA    0.507513860689   0.172376460764  -2.969701172850 Bohr
   6 H     -1.761491765987   1.088739166275  -0.472815424150 AA   -3.328737008393   2.057418845347  -0.893491659114 Bohr
   7 H     -0.896088580884   1.076931090257   1.164837861913 AA   -1.693362001221   2.035104815615   2.201224538539 Bohr
   8 H      2.177017851564   0.900846428376  -0.069315546940 AA    4.113967507745   1.702353029924  -0.130987399890 Bohr
   9 H      2.101965605082  -0.877672015701  -0.047703557350 AA    3.972139316861  -1.658559736869  -0.090146658558 Bohr
  10 H      1.424715134051   0.051277166363   1.312970769325 AA    2.692321408879   0.096899800869   2.481155163584 Bohr


******** <class 'pyscf.scf.hf.DFRKS_Scanner'> ********
method = DFRKS_Scanner
initial guess = minao
damping factor = None
level_shift factor = None
DIIS = <class 'gpu4pyscf.scf.diis.CDIIS'>
diis_start_cycle = 1
diis_space = 8
diis_damp = 0
SCF conv_tol = 1e-10
SCF conv_tol_grad = None
SCF max_cycles = 50
direct_scf = False
XC library gpu4pyscf.dft.libxc version 7.0.0 (CUDA)
    unable to decode the reference due to https://github.com/NVIDIA/cuda-python/issues/29
XC functionals = PBE0
radial grids: 
Treutler-Ahlrichs [JCP 102, 346 (1995); DOI:10.1063/1.469408] (M4) radial grids

becke partition: Becke, JCP 88, 2547 (1988); DOI:10.1063/1.454033
pruning grids: <function nwchem_prune at 0x14b55ceca7a0>
grids dens level: 3
symmetrized grids: False
atomic radii adjust function: <function treutler_atomic_radii_adjust at 0x14b55ceca840>
User specified grid scheme (99, 590)
small_rho_cutoff = 0
Set gradient conv threshold to 1e-05
Number of shells for each [l, nprim] group
    [0 5] : 4
    [0 3] : 6
    [0 1] : 14
    [1 3] : 4
    [1 1] : 10
    [2 1] : 4
sp_blocks = 21, ksh_blocks = 1, shm_size = 59512 B
    CPU time for processing contract_int3c2e_auxvec                      0.11 sec, wall time      0.00 sec, GPU time      2.39 ms
Number of shells for each [l, nprim] group
    [0 5] : 4
    [0 3] : 6
    [0 1] : 14
    [1 3] : 4
    [1 1] : 10
    [2 1] : 4
Number of shells for each [l, nprim] group
    [0 5] : 4
    [0 3] : 6
    [0 1] : 14
    [1 3] : 4
    [1 1] : 10
    [2 1] : 4
    CPU time for hcore                                                   1.15 sec, wall time      0.04 sec, GPU time     42.22 ms
atom O rad-grids = 99, ang-grids = [ 50  50  50  50  50  50  50  50  50  50  50  50  50  50  50  50  50  50
  50  50  50  50  50  50  50  50  50  50  50  50  86  86  86  86  86  86
  86  86  86  86  86  86  86 434 434 434 434 434 434 434 434 590 590 590
 590 590 590 590 590 590 590 590 590 590 590 590 590 590 590 590 590 590
 590 590 590 590 590 590 434 434 434 434 434 434 434 434 434 434 434 434
 434 434 434 434 434 434 434 434 434]
atom C rad-grids = 99, ang-grids = [ 50  50  50  50  50  50  50  50  50  50  50  50  50  50  50  50  50  50
  50  50  50  50  50  50  50  50  50  50  50  50  86  86  86  86  86  86
  86  86  86  86  86  86 434 434 434 434 434 434 434 434 434 590 590 590
 590 590 590 590 590 590 590 590 590 590 590 590 590 590 590 590 590 590
 590 590 590 590 590 434 434 434 434 434 434 434 434 434 434 434 434 434
 434 434 434 434 434 434 434 434 434]
atom H rad-grids = 99, ang-grids = [ 50  50  50  50  50  50  50  50  50  50  50  50  50  50  50  50  50  50
  50  50  50  50  50  50  50  50  50  50  50  50  86  86  86  86  86  86
  86 434 434 434 434 434 434 434 434 434 434 590 590 590 590 590 590 590
 590 590 590 590 590 590 590 590 590 590 590 590 590 590 590 590 590 590
 590 590 434 434 434 434 434 434 434 434 434 434 434 434 434 434 434 434
 434 434 434 434 434 434 434 434 434]
    CPU time for generating atomic grids                                 0.23 sec, wall time      0.01 sec, GPU time      6.46 ms
Padding 164 grids
    CPU time for sorting grids                                           0.00 sec, wall time      0.00 sec, GPU time      0.97 ms
tot grids = 324608
    CPU time for setting up grids                                        0.23 sec, wall time      0.01 sec, GPU time      7.52 ms
Number of shells for each [l, nctr] group
    [0 1] : 14
    [0 3] : 6
    [0 5] : 4
    [1 1] : 10
    [1 3] : 4
    [2 1] : 4
324608 grids on Device 0
0 - 324608 grids are calculated on Device 0.
mem_info: unallocated=39778.69 MB, used=30.35 MB, free=226.65 MB, free_blocks=36
41948.634112 MB memory is available on Device 0, block_size None
    CPU time for eval rho on Device 0                                    0.72 sec, wall time      0.04 sec, GPU time     40.02 ms
    CPU time for eval vxc on Device 0                                    0.00 sec, wall time      0.00 sec, GPU time      1.08 ms
0 - 324608 grids are calculated on Device 0.
mem_info: unallocated=39770.69 MB, used=38.77 MB, free=218.23 MB, free_blocks=33
41931.421696 MB memory is available on Device 0, block_size None
    CPU time for eval integration on 0                                   0.02 sec, wall time      0.02 sec, GPU time     19.81 ms
    CPU time for nr_rks                                                  0.86 sec, wall time      0.06 sec, GPU time     63.91 ms
nelec by numeric integration = 32.00014769558422
    CPU time for vxc                                                     1.09 sec, wall time      0.07 sec, GPU time     71.56 ms
Build CDERI ...
Psi4 predefined JKFIT basis set def2-svp-jkfit for HF
Default auxbasis def2-svp-jkfit is applied universally
num shells = 136, num cGTOs = 410
    CPU time for 2c2e                                                    0.56 sec, wall time      0.03 sec, GPU time     33.64 ms
Number of shells for each [l, nctr] group
    [0 1] : 14
    [0 3] : 6
    [0 5] : 4
    [1 1] : 10
    [1 3] : 4
    [2 1] : 4
Number of shells for each [l, nctr] group
    [0 1] : 42
    [0 3] : 6
    [0 5] : 4
    [1 1] : 40
    [1 3] : 4
    [2 1] : 27
    [2 2] : 3
    [2 3] : 1
    [3 1] : 2
    [3 2] : 3
    [4 1] : 4
    CPU time for Initialize q_cond                                       0.57 sec, wall time      0.03 sec, GPU time     26.65 ms
    CPU time for Get AO pairing                                          0.00 sec, wall time      0.00 sec, GPU time      0.61 ms
    CPU time for AO indices                                              0.00 sec, wall time      0.00 sec, GPU time      0.20 ms
    CPU time for Aux AO indices                                          0.09 sec, wall time      0.00 sec, GPU time      0.38 ms
    CPU time for Get AO pairs                                            0.00 sec, wall time      0.00 sec, GPU time      0.84 ms
    CPU time for prepare intopt                                          0.69 sec, wall time      0.03 sec, GPU time     33.07 ms
size of aux basis 410
Saving CDERI on GPU
CDERI size 0.011 GB on Device 0
    CPU time for Initialize GPU cache on Device 0                        0.03 sec, wall time      0.00 sec, GPU time      0.27 ms
    CPU time for solve 5 / 21 on Device 0                                0.08 sec, wall time      0.00 sec, GPU time      3.41 ms
    CPU time for transfer data for 5 / 21 on Device 0                    0.00 sec, wall time      0.00 sec, GPU time      0.08 ms
    CPU time for solve 2 / 21 on Device 0                                0.01 sec, wall time      0.00 sec, GPU time      2.24 ms
    CPU time for transfer data for 2 / 21 on Device 0                    0.00 sec, wall time      0.00 sec, GPU time      0.07 ms
    CPU time for solve 4 / 21 on Device 0                                0.00 sec, wall time      0.00 sec, GPU time      2.36 ms
    CPU time for transfer data for 4 / 21 on Device 0                    0.00 sec, wall time      0.00 sec, GPU time      0.07 ms
    CPU time for solve 12 / 21 on Device 0                               0.00 sec, wall time      0.00 sec, GPU time      2.62 ms
    CPU time for transfer data for 12 / 21 on Device 0                   0.00 sec, wall time      0.00 sec, GPU time      0.07 ms
    CPU time for solve 3 / 21 on Device 0                                0.00 sec, wall time      0.00 sec, GPU time      2.10 ms
    CPU time for transfer data for 3 / 21 on Device 0                    0.00 sec, wall time      0.00 sec, GPU time      0.07 ms
    CPU time for solve 11 / 21 on Device 0                               0.00 sec, wall time      0.00 sec, GPU time      2.32 ms
    CPU time for transfer data for 11 / 21 on Device 0                   0.00 sec, wall time      0.00 sec, GPU time      0.07 ms
    CPU time for solve 14 / 21 on Device 0                               0.00 sec, wall time      0.00 sec, GPU time      3.02 ms
    CPU time for transfer data for 14 / 21 on Device 0                   0.00 sec, wall time      0.00 sec, GPU time      0.07 ms
    CPU time for solve 17 / 21 on Device 0                               0.00 sec, wall time      0.00 sec, GPU time      2.21 ms
    CPU time for transfer data for 17 / 21 on Device 0                   0.00 sec, wall time      0.00 sec, GPU time      0.07 ms
    CPU time for solve 1 / 21 on Device 0                                0.00 sec, wall time      0.00 sec, GPU time      2.07 ms
    CPU time for transfer data for 1 / 21 on Device 0                    0.00 sec, wall time      0.00 sec, GPU time      0.07 ms
    CPU time for solve 0 / 21 on Device 0                                0.00 sec, wall time      0.00 sec, GPU time      2.04 ms
    CPU time for transfer data for 0 / 21 on Device 0                    0.00 sec, wall time      0.00 sec, GPU time      0.07 ms
    CPU time for solve 16 / 21 on Device 0                               0.00 sec, wall time      0.00 sec, GPU time      2.15 ms
    CPU time for transfer data for 16 / 21 on Device 0                   0.00 sec, wall time      0.00 sec, GPU time      0.07 ms
    CPU time for solve 8 / 21 on Device 0                                0.00 sec, wall time      0.00 sec, GPU time      2.13 ms
    CPU time for transfer data for 8 / 21 on Device 0                    0.00 sec, wall time      0.00 sec, GPU time      0.07 ms
    CPU time for solve 10 / 21 on Device 0                               0.00 sec, wall time      0.00 sec, GPU time      2.08 ms
    CPU time for transfer data for 10 / 21 on Device 0                   0.00 sec, wall time      0.00 sec, GPU time      0.07 ms
    CPU time for solve 7 / 21 on Device 0                                0.00 sec, wall time      0.00 sec, GPU time      2.14 ms
    CPU time for transfer data for 7 / 21 on Device 0                    0.00 sec, wall time      0.00 sec, GPU time      0.07 ms
    CPU time for solve 20 / 21 on Device 0                               0.00 sec, wall time      0.00 sec, GPU time      2.70 ms
    CPU time for transfer data for 20 / 21 on Device 0                   0.00 sec, wall time      0.00 sec, GPU time      0.07 ms
    CPU time for solve 19 / 21 on Device 0                               0.00 sec, wall time      0.00 sec, GPU time      2.67 ms
    CPU time for transfer data for 19 / 21 on Device 0                   0.00 sec, wall time      0.00 sec, GPU time      0.07 ms
    CPU time for solve 15 / 21 on Device 0                               0.00 sec, wall time      0.00 sec, GPU time      2.10 ms
    CPU time for transfer data for 15 / 21 on Device 0                   0.00 sec, wall time      0.00 sec, GPU time      0.07 ms
    CPU time for solve 13 / 21 on Device 0                               0.00 sec, wall time      0.00 sec, GPU time      2.13 ms
    CPU time for transfer data for 13 / 21 on Device 0                   0.00 sec, wall time      0.00 sec, GPU time      0.07 ms
    CPU time for solve 6 / 21 on Device 0                                0.00 sec, wall time      0.00 sec, GPU time      2.05 ms
    CPU time for transfer data for 6 / 21 on Device 0                    0.00 sec, wall time      0.00 sec, GPU time      0.07 ms
    CPU time for solve 9 / 21 on Device 0                                0.00 sec, wall time      0.00 sec, GPU time      2.06 ms
    CPU time for transfer data for 9 / 21 on Device 0                    0.00 sec, wall time      0.00 sec, GPU time      0.07 ms
    CPU time for solve 18 / 21 on Device 0                               0.00 sec, wall time      0.00 sec, GPU time      2.13 ms
    CPU time for transfer data for 18 / 21 on Device 0                   0.00 sec, wall time      0.00 sec, GPU time      0.07 ms
    CPU time for cholesky_eri                                            0.84 sec, wall time      0.09 sec, GPU time     85.57 ms
    CPU time for init jk                                                 1.40 sec, wall time      0.12 sec, GPU time    119.30 ms
38.135 GB memory available on Device 0, block size = 256
    CPU time for vj and vk on Device 0                                   0.00 sec, wall time      0.00 sec, GPU time      3.80 ms
    CPU time for vj and vk                                               0.01 sec, wall time      0.01 sec, GPU time      5.74 ms
    CPU time for veff                                                    1.40 sec, wall time      0.13 sec, GPU time    126.13 ms
E1 = -508.5171737315297  Ecoul = 217.44497080354986  Exc = -26.852000701246077
init E= -192.743317495157
cond(S) = 3075.5600350419877
    CPU time for SCF initialization                                      3.66 sec, wall time      0.24 sec, GPU time    244.28 ms
    CPU time for DIIS                                                    0.00 sec, wall time      0.00 sec, GPU time      0.11 ms
    CPU time for eig                                                     0.00 sec, wall time      0.00 sec, GPU time      2.61 ms
  HOMO = -0.280375145924313  LUMO = 0.0799551105534205  gap = 9.80509 eV
324608 grids on Device 0
0 - 324608 grids are calculated on Device 0.
mem_info: unallocated=39778.69 MB, used=43.53 MB, free=213.47 MB, free_blocks=34
41934.818816 MB memory is available on Device 0, block_size None
    CPU time for eval rho on Device 0                                    0.04 sec, wall time      0.04 sec, GPU time     36.38 ms
    CPU time for eval vxc on Device 0                                    0.00 sec, wall time      0.00 sec, GPU time      1.10 ms
0 - 324608 grids are calculated on Device 0.
mem_info: unallocated=39770.69 MB, used=51.93 MB, free=205.07 MB, free_blocks=33
41917.620736 MB memory is available on Device 0, block_size None
    CPU time for eval integration on 0                                   0.02 sec, wall time      0.02 sec, GPU time     18.58 ms
    CPU time for nr_rks                                                  0.06 sec, wall time      0.06 sec, GPU time     58.34 ms
nelec by numeric integration = 31.99999894105329
    CPU time for vxc                                                     0.06 sec, wall time      0.06 sec, GPU time     58.46 ms
38.134 GB memory available on Device 0, block size = 256
    CPU time for vj and vk on Device 0                                   0.00 sec, wall time      0.00 sec, GPU time      3.25 ms
    CPU time for vj and vk                                               0.00 sec, wall time      0.00 sec, GPU time      4.81 ms
    CPU time for veff                                                    0.01 sec, wall time      0.01 sec, GPU time      5.46 ms
    CPU time for veff                                                    0.07 sec, wall time      0.07 sec, GPU time     66.03 ms
E1 = -508.5164568517637  Ecoul = 217.44426422733144  Exc = -26.851989854003676
    CPU time for cycle=1                                                 0.07 sec, wall time      0.07 sec, GPU time     69.86 ms
cycle= 1 E= -192.743296344367  delta_E= 2.12e-05  |g|= 0.000432  |ddm|= 0.0068
diis-c [-1.86216471e-07  1.00000000e+00]
    CPU time for DIIS                                                    0.00 sec, wall time      0.00 sec, GPU time      0.96 ms
    CPU time for eig                                                     0.00 sec, wall time      0.00 sec, GPU time      2.86 ms
  HOMO = -0.280396788948427  LUMO = 0.079935301547606  gap = 9.80514 eV
324608 grids on Device 0
0 - 324608 grids are calculated on Device 0.
mem_info: unallocated=39778.69 MB, used=43.64 MB, free=213.36 MB, free_blocks=32
41934.697984 MB memory is available on Device 0, block_size None
    CPU time for eval rho on Device 0                                    0.04 sec, wall time      0.04 sec, GPU time     36.72 ms
    CPU time for eval vxc on Device 0                                    0.00 sec, wall time      0.00 sec, GPU time      0.96 ms
0 - 324608 grids are calculated on Device 0.
mem_info: unallocated=39770.69 MB, used=52.05 MB, free=204.96 MB, free_blocks=31
41917.499904 MB memory is available on Device 0, block_size None
    CPU time for eval integration on 0                                   0.02 sec, wall time      0.02 sec, GPU time     18.27 ms
    CPU time for nr_rks                                                  0.06 sec, wall time      0.06 sec, GPU time     57.30 ms
nelec by numeric integration = 31.999998940840776
    CPU time for vxc                                                     0.06 sec, wall time      0.06 sec, GPU time     57.38 ms
38.134 GB memory available on Device 0, block size = 256
    CPU time for vj and vk on Device 0                                   0.01 sec, wall time      0.01 sec, GPU time      6.33 ms
    CPU time for vj and vk                                               0.01 sec, wall time      0.01 sec, GPU time      8.76 ms
    CPU time for veff                                                    0.01 sec, wall time      0.01 sec, GPU time     10.01 ms
    CPU time for veff                                                    0.07 sec, wall time      0.07 sec, GPU time     68.55 ms
E1 = -508.5158510353866  Ecoul = 217.443574656198  Exc = -26.851906173021828
    CPU time for cycle=2                                                 0.07 sec, wall time      0.07 sec, GPU time     74.57 ms
cycle= 2 E= -192.743296418142  delta_E= -7.38e-08  |g|= 0.000283  |ddm|= 0.000894
diis-c [-3.47203079e-08  3.53927243e-01  6.46072757e-01]
    CPU time for DIIS                                                    0.00 sec, wall time      0.00 sec, GPU time      1.95 ms
    CPU time for eig                                                     0.00 sec, wall time      0.00 sec, GPU time      3.24 ms
  HOMO = -0.280424017404695  LUMO = 0.0799326168214383  gap = 9.80580 eV
324608 grids on Device 0
0 - 324608 grids are calculated on Device 0.
mem_info: unallocated=39778.69 MB, used=43.70 MB, free=213.30 MB, free_blocks=34
41934.637568 MB memory is available on Device 0, block_size None
    CPU time for eval rho on Device 0                                    0.04 sec, wall time      0.04 sec, GPU time     36.68 ms
    CPU time for eval vxc on Device 0                                    0.00 sec, wall time      0.00 sec, GPU time      0.95 ms
0 - 324608 grids are calculated on Device 0.
mem_info: unallocated=39770.69 MB, used=52.10 MB, free=204.90 MB, free_blocks=32
41917.439488 MB memory is available on Device 0, block_size None
    CPU time for eval integration on 0                                   0.02 sec, wall time      0.02 sec, GPU time     18.65 ms
    CPU time for nr_rks                                                  0.06 sec, wall time      0.06 sec, GPU time     58.60 ms
nelec by numeric integration = 31.999998941026746
    CPU time for vxc                                                     0.06 sec, wall time      0.06 sec, GPU time     58.76 ms
38.134 GB memory available on Device 0, block size = 256
    CPU time for vj and vk on Device 0                                   0.00 sec, wall time      0.00 sec, GPU time      3.15 ms
    CPU time for vj and vk                                               0.01 sec, wall time      0.01 sec, GPU time      5.91 ms
    CPU time for veff                                                    0.01 sec, wall time      0.01 sec, GPU time      7.21 ms
    CPU time for veff                                                    0.07 sec, wall time      0.07 sec, GPU time     68.17 ms
E1 = -508.51655584983257  Ecoul = 217.44438054147156  Exc = -26.852007257237794
    CPU time for cycle=3                                                 0.08 sec, wall time      0.08 sec, GPU time     75.58 ms
cycle= 3 E= -192.74329643153  delta_E= -1.34e-08  |g|= 0.000158  |ddm|= 0.000351
diis-c [-2.49975856e-09 -1.37791057e-02  3.48947705e-01  6.64831401e-01]
    CPU time for DIIS                                                    0.00 sec, wall time      0.00 sec, GPU time      2.32 ms
    CPU time for eig                                                     0.00 sec, wall time      0.00 sec, GPU time      3.24 ms
  HOMO = -0.280401992645115  LUMO = 0.0799321458812122  gap = 9.80519 eV
324608 grids on Device 0
0 - 324608 grids are calculated on Device 0.
mem_info: unallocated=39778.69 MB, used=43.76 MB, free=213.24 MB, free_blocks=34
41934.577152 MB memory is available on Device 0, block_size None
    CPU time for eval rho on Device 0                                    0.05 sec, wall time      0.05 sec, GPU time     53.70 ms
    CPU time for eval vxc on Device 0                                    0.00 sec, wall time      0.00 sec, GPU time      0.95 ms
0 - 324608 grids are calculated on Device 0.
mem_info: unallocated=39770.69 MB, used=52.16 MB, free=204.84 MB, free_blocks=32
41917.379072 MB memory is available on Device 0, block_size None
    CPU time for eval integration on 0                                   0.02 sec, wall time      0.02 sec, GPU time     18.29 ms
    CPU time for nr_rks                                                  0.08 sec, wall time      0.08 sec, GPU time     75.50 ms
nelec by numeric integration = 31.99999894098933
    CPU time for vxc                                                     0.08 sec, wall time      0.08 sec, GPU time     75.66 ms
38.134 GB memory available on Device 0, block size = 256
    CPU time for vj and vk on Device 0                                   0.01 sec, wall time      0.01 sec, GPU time      6.35 ms
    CPU time for vj and vk                                               0.01 sec, wall time      0.01 sec, GPU time      9.37 ms
    CPU time for veff                                                    0.01 sec, wall time      0.01 sec, GPU time     10.67 ms
    CPU time for veff                                                    0.09 sec, wall time      0.09 sec, GPU time     88.57 ms
E1 = -508.51620797401705  Ecoul = 217.44398254976542  Exc = -26.851957145900066
    CPU time for cycle=4                                                 0.10 sec, wall time      0.10 sec, GPU time     96.35 ms
cycle= 4 E= -192.743296436083  delta_E= -4.55e-09  |g|= 5.2e-05  |ddm|= 0.00015
diis-c [-1.82748905e-10 -3.20112725e-02  1.46819916e-01  3.64256169e-01
  5.20935188e-01]
    CPU time for DIIS                                                    0.00 sec, wall time      0.00 sec, GPU time      2.75 ms
    CPU time for eig                                                     0.00 sec, wall time      0.00 sec, GPU time      3.24 ms
  HOMO = -0.280408766042893  LUMO = 0.079933306980381  gap = 9.80541 eV
324608 grids on Device 0
0 - 324608 grids are calculated on Device 0.
mem_info: unallocated=39778.69 MB, used=43.82 MB, free=213.18 MB, free_blocks=36
41934.516736 MB memory is available on Device 0, block_size None
    CPU time for eval rho on Device 0                                    0.04 sec, wall time      0.04 sec, GPU time     36.64 ms
    CPU time for eval vxc on Device 0                                    0.00 sec, wall time      0.00 sec, GPU time      0.94 ms
0 - 324608 grids are calculated on Device 0.
mem_info: unallocated=39770.69 MB, used=52.22 MB, free=204.78 MB, free_blocks=35
41917.318656 MB memory is available on Device 0, block_size None
    CPU time for eval integration on 0                                   0.02 sec, wall time      0.02 sec, GPU time     18.44 ms
    CPU time for nr_rks                                                  0.06 sec, wall time      0.06 sec, GPU time     58.37 ms
nelec by numeric integration = 31.999998940981474
    CPU time for vxc                                                     0.06 sec, wall time      0.06 sec, GPU time     58.52 ms
38.134 GB memory available on Device 0, block size = 256
    CPU time for vj and vk on Device 0                                   0.00 sec, wall time      0.00 sec, GPU time      3.18 ms
    CPU time for vj and vk                                               0.01 sec, wall time      0.01 sec, GPU time      5.94 ms
    CPU time for veff                                                    0.01 sec, wall time      0.01 sec, GPU time      7.22 ms
    CPU time for veff                                                    0.07 sec, wall time      0.07 sec, GPU time     67.88 ms
E1 = -508.5162719712181  Ecoul = 217.44405537289305  Exc = -26.851965972383532
    CPU time for cycle=5                                                 0.08 sec, wall time      0.08 sec, GPU time     76.09 ms
cycle= 5 E= -192.74329643664  delta_E= -5.57e-10  |g|= 8.71e-06  |ddm|= 5.2e-05
diis-c [-5.98812427e-12 -1.15779792e-02  3.41380463e-02  9.49579652e-02
  2.08347748e-01  6.74134220e-01]
    CPU time for DIIS                                                    0.00 sec, wall time      0.00 sec, GPU time      2.90 ms
    CPU time for eig                                                     0.00 sec, wall time      0.00 sec, GPU time      3.24 ms
  HOMO = -0.280408274997234  LUMO = 0.0799330972085338  gap = 9.80539 eV
324608 grids on Device 0
0 - 324608 grids are calculated on Device 0.
mem_info: unallocated=39778.69 MB, used=43.87 MB, free=213.13 MB, free_blocks=37
41934.45632 MB memory is available on Device 0, block_size None
    CPU time for eval rho on Device 0                                    0.04 sec, wall time      0.04 sec, GPU time     36.97 ms
    CPU time for eval vxc on Device 0                                    0.00 sec, wall time      0.00 sec, GPU time      0.94 ms
0 - 324608 grids are calculated on Device 0.
mem_info: unallocated=39770.69 MB, used=52.28 MB, free=204.73 MB, free_blocks=34
41917.25824 MB memory is available on Device 0, block_size None
    CPU time for eval integration on 0                                   0.02 sec, wall time      0.02 sec, GPU time     18.74 ms
    CPU time for nr_rks                                                  0.06 sec, wall time      0.06 sec, GPU time     59.03 ms
nelec by numeric integration = 31.999998940984494
    CPU time for vxc                                                     0.06 sec, wall time      0.06 sec, GPU time     59.19 ms
38.134 GB memory available on Device 0, block size = 256
    CPU time for vj and vk on Device 0                                   0.01 sec, wall time      0.01 sec, GPU time      6.34 ms
    CPU time for vj and vk                                               0.01 sec, wall time      0.01 sec, GPU time      9.37 ms
    CPU time for veff                                                    0.01 sec, wall time      0.01 sec, GPU time     10.67 ms
    CPU time for veff                                                    0.07 sec, wall time      0.07 sec, GPU time     72.08 ms
E1 = -508.5162692696914  Ecoul = 217.44405234444713  Exc = -26.85196564548153
    CPU time for cycle=6                                                 0.08 sec, wall time      0.08 sec, GPU time     80.40 ms
cycle= 6 E= -192.743296436657  delta_E= -1.72e-11  |g|= 1.42e-06  |ddm|= 1.02e-05
    CPU time for SCF                                                     4.13 sec, wall time      0.72 sec, GPU time    718.89 ms
converged SCF energy = -192.743296436657


******** <class 'gpu4pyscf.grad.rhf.Gradients_Scanner'> for <class 'pyscf.scf.hf.DFRKS_Scanner'> ********
unit = Eh/Bohr
max_memory 4000 MB (current use 1115 MB)
Number of shells for each [l, nctr] group
    [0 1] : 14
    [0 3] : 6
    [0 5] : 4
    [1 1] : 10
    [1 3] : 4
    [2 1] : 4
    CPU time for Initialize q_cond                                       0.65 sec, wall time      0.02 sec, GPU time     22.33 ms
    CPU time for Get AO pairing                                          0.00 sec, wall time      0.00 sec, GPU time      0.91 ms
    CPU time for AO indices                                              0.00 sec, wall time      0.00 sec, GPU time      0.21 ms
    CPU time for Initialize GPU cache                                    0.00 sec, wall time      0.00 sec, GPU time      0.47 ms
    CPU time for gradients of h1e                                        2.18 sec, wall time      0.09 sec, GPU time     87.29 ms
324608 grids on Device 0
0 - 324608 grids are calculated on Device 0.
mem_info: unallocated=39778.69 MB, used=23.91 MB, free=233.10 MB, free_blocks=35
41955.395072 MB memory is available on Device 0, block_size None
    CPU time for gradient of vxc                                         0.17 sec, wall time      0.17 sec, GPU time    168.46 ms
    CPU time for grad vxc                                                0.17 sec, wall time      0.17 sec, GPU time    169.75 ms
    CPU time for vxc total                                               0.17 sec, wall time      0.17 sec, GPU time    170.07 ms
Number of shells for each [l, nprim] group
    [0 5] : 4
    [0 3] : 6
    [0 1] : 14
    [1 3] : 4
    [1 1] : 10
    [2 1] : 4
Number of shells for each [l, nprim] group
    [0 5] : 4
    [0 3] : 6
    [0 1] : 42
    [1 3] : 4
    [1 1] : 40
    [2 3] : 1
    [2 2] : 3
    [2 1] : 27
    [3 2] : 3
    [3 1] : 2
    [4 1] : 4
dm_factor shape (90, 16)
sp_batches = 1, ksh_batches = 11
41.711 GB free memory. nao_pair=4195 naux=480 batch_size=480 blksize=480
    CPU time for contract dm                                             0.03 sec, wall time      0.03 sec, GPU time     30.05 ms
int2c2e_kernel, nimgs = 1
    CPU time for contract int3c2e_ejk_ip1                                0.03 sec, wall time      0.03 sec, GPU time     49.23 ms
int2c2e_kernel, nimgs = 1
    CPU time for contract int2c2e_ip1                                    0.04 sec, wall time      0.04 sec, GPU time     21.26 ms
    CPU time for gradients of veff                                       0.30 sec, wall time      0.30 sec, GPU time    302.17 ms
Computing Gradients of NR-HF Coulomb repulsion
    CPU time for gradients of 2e part                                    0.30 sec, wall time      0.30 sec, GPU time    302.29 ms
    CPU time for gradients of electronic part                            2.48 sec, wall time      0.39 sec, GPU time    390.36 ms
    CPU time for SCF gradients                                           2.48 sec, wall time      0.39 sec, GPU time    390.85 ms
--------------- DFRKS_Scanner gradients ---------------
         x                y                z
0 O    -0.0000554656     0.0000018491     0.0000352678
1 C     0.0000321525     0.0000955836     0.0000732009
2 C    -0.0000331354    -0.0001404558    -0.0000716043
3 C    -0.0000025889    -0.0000600631    -0.0000265164
4 H     0.0000034296    -0.0000041303    -0.0000136271
5 H     0.0000184151     0.0000477467    -0.0000227718
6 H     0.0000209368     0.0000102501     0.0000412509
7 H    -0.0000023679     0.0000187165    -0.0000104543
8 H     0.0000163442     0.0000044308    -0.0000033416
9 H     0.0000024705     0.0000239594     0.0000009640
----------------------------------------------
cycle 10: E = -192.743296437  dE = -1.35e-06  norm(grad) = 0.00023888

Geometry optimization cycle 11
Cartesian coordinates (Angstrom)
 Atom        New coordinates             dX        dY        dZ
   O  -0.795563  -0.738481   0.053278    0.000285  0.000183  0.000088
   C   0.225934   0.083869  -0.471902    0.000021  0.000036 -0.000327
   C  -0.968152   0.657026   0.152114    0.000215  0.000274 -0.000068
   C   1.555198   0.039646   0.221017   -0.000078  0.000097 -0.000030
   H   0.268599   0.091085  -1.571802    0.000034 -0.000133 -0.000304
   H  -1.761906   1.088324  -0.472508   -0.000414 -0.000416  0.000307
   H  -0.895702   1.077435   1.164596    0.000387  0.000504 -0.000242
   H   2.177153   0.900932  -0.068823    0.000135  0.000085  0.000492
   H   2.101832  -0.877573  -0.047845   -0.000134  0.000099 -0.000141
   H   1.424242   0.050831   1.312895   -0.000474 -0.000446 -0.000076
New geometry
   1 O     -0.795563101949  -0.738480650213   0.053277568163 AA   -1.503396377492  -1.395526177193   0.100680012411 Bohr
   2 C      0.225934479782   0.083869356969  -0.471901803094 AA    0.426954288884   0.158490114915  -0.891765165535 Bohr
   3 C     -0.968151577467   0.657025919109   0.152114275279 AA   -1.829541328479   1.241599043857   0.287454319914 Bohr
   4 C      1.555198132543   0.039645885437   0.221016990373 AA    2.938898539942   0.074919865443   0.417661580680 Bohr
   5 H      0.268598801782   0.091085054852  -1.571802282733 AA    0.507578172754   0.172125807711  -2.970275836331 Bohr
   6 H     -1.761906171750   1.088323567972  -0.472507963057 AA   -3.329520121789   2.056633478376  -0.892910641854 Bohr
   7 H     -0.895702043864   1.077435307498   1.164595780369 AA   -1.692631552117   2.036057648108   2.200767070721 Bohr
   8 H      2.177152723802   0.900931627869  -0.068823408315 AA    4.114222379336   1.702514033631  -0.130057392674 Bohr
   9 H      2.101831544198  -0.877572851951  -0.047844756539 AA    3.971885978505  -1.658372344541  -0.090413486356 Bohr
  10 H      1.424241581657   0.050830797556   1.312894541652 AA    2.691426524549   0.096056286073   2.481011114158 Bohr


******** <class 'pyscf.scf.hf.DFRKS_Scanner'> ********
method = DFRKS_Scanner
initial guess = minao
damping factor = None
level_shift factor = None
DIIS = <class 'gpu4pyscf.scf.diis.CDIIS'>
diis_start_cycle = 1
diis_space = 8
diis_damp = 0
SCF conv_tol = 1e-10
SCF conv_tol_grad = None
SCF max_cycles = 50
direct_scf = False
XC library gpu4pyscf.dft.libxc version 7.0.0 (CUDA)
    unable to decode the reference due to https://github.com/NVIDIA/cuda-python/issues/29
XC functionals = PBE0
radial grids: 
Treutler-Ahlrichs [JCP 102, 346 (1995); DOI:10.1063/1.469408] (M4) radial grids

becke partition: Becke, JCP 88, 2547 (1988); DOI:10.1063/1.454033
pruning grids: <function nwchem_prune at 0x14b55ceca7a0>
grids dens level: 3
symmetrized grids: False
atomic radii adjust function: <function treutler_atomic_radii_adjust at 0x14b55ceca840>
User specified grid scheme (99, 590)
small_rho_cutoff = 0
Set gradient conv threshold to 1e-05
Number of shells for each [l, nprim] group
    [0 5] : 4
    [0 3] : 6
    [0 1] : 14
    [1 3] : 4
    [1 1] : 10
    [2 1] : 4
sp_blocks = 21, ksh_blocks = 1, shm_size = 59512 B
    CPU time for processing contract_int3c2e_auxvec                      0.11 sec, wall time      0.00 sec, GPU time      2.35 ms
Number of shells for each [l, nprim] group
    [0 5] : 4
    [0 3] : 6
    [0 1] : 14
    [1 3] : 4
    [1 1] : 10
    [2 1] : 4
Number of shells for each [l, nprim] group
    [0 5] : 4
    [0 3] : 6
    [0 1] : 14
    [1 3] : 4
    [1 1] : 10
    [2 1] : 4
    CPU time for hcore                                                   1.16 sec, wall time      0.04 sec, GPU time     41.34 ms
atom O rad-grids = 99, ang-grids = [ 50  50  50  50  50  50  50  50  50  50  50  50  50  50  50  50  50  50
  50  50  50  50  50  50  50  50  50  50  50  50  86  86  86  86  86  86
  86  86  86  86  86  86  86 434 434 434 434 434 434 434 434 590 590 590
 590 590 590 590 590 590 590 590 590 590 590 590 590 590 590 590 590 590
 590 590 590 590 590 590 434 434 434 434 434 434 434 434 434 434 434 434
 434 434 434 434 434 434 434 434 434]
atom C rad-grids = 99, ang-grids = [ 50  50  50  50  50  50  50  50  50  50  50  50  50  50  50  50  50  50
  50  50  50  50  50  50  50  50  50  50  50  50  86  86  86  86  86  86
  86  86  86  86  86  86 434 434 434 434 434 434 434 434 434 590 590 590
 590 590 590 590 590 590 590 590 590 590 590 590 590 590 590 590 590 590
 590 590 590 590 590 434 434 434 434 434 434 434 434 434 434 434 434 434
 434 434 434 434 434 434 434 434 434]
atom H rad-grids = 99, ang-grids = [ 50  50  50  50  50  50  50  50  50  50  50  50  50  50  50  50  50  50
  50  50  50  50  50  50  50  50  50  50  50  50  86  86  86  86  86  86
  86 434 434 434 434 434 434 434 434 434 434 590 590 590 590 590 590 590
 590 590 590 590 590 590 590 590 590 590 590 590 590 590 590 590 590 590
 590 590 434 434 434 434 434 434 434 434 434 434 434 434 434 434 434 434
 434 434 434 434 434 434 434 434 434]
    CPU time for generating atomic grids                                 0.23 sec, wall time      0.01 sec, GPU time      6.23 ms
Padding 164 grids
    CPU time for sorting grids                                           0.00 sec, wall time      0.00 sec, GPU time      0.92 ms
tot grids = 324608
    CPU time for setting up grids                                        0.23 sec, wall time      0.01 sec, GPU time      7.25 ms
Number of shells for each [l, nctr] group
    [0 1] : 14
    [0 3] : 6
    [0 5] : 4
    [1 1] : 10
    [1 3] : 4
    [2 1] : 4
324608 grids on Device 0
0 - 324608 grids are calculated on Device 0.
mem_info: unallocated=39778.69 MB, used=30.35 MB, free=226.65 MB, free_blocks=38
41948.634112 MB memory is available on Device 0, block_size None
    CPU time for eval rho on Device 0                                    0.48 sec, wall time      0.04 sec, GPU time     39.09 ms
    CPU time for eval vxc on Device 0                                    0.00 sec, wall time      0.00 sec, GPU time      1.08 ms
0 - 324608 grids are calculated on Device 0.
mem_info: unallocated=39770.69 MB, used=38.77 MB, free=218.23 MB, free_blocks=34
41931.421696 MB memory is available on Device 0, block_size None
    CPU time for eval integration on 0                                   0.02 sec, wall time      0.02 sec, GPU time     19.45 ms
    CPU time for nr_rks                                                  0.62 sec, wall time      0.06 sec, GPU time     62.87 ms
nelec by numeric integration = 32.00002827354651
    CPU time for vxc                                                     0.85 sec, wall time      0.07 sec, GPU time     70.25 ms
Build CDERI ...
Psi4 predefined JKFIT basis set def2-svp-jkfit for HF
Default auxbasis def2-svp-jkfit is applied universally
num shells = 136, num cGTOs = 410
    CPU time for 2c2e                                                    0.76 sec, wall time      0.04 sec, GPU time     44.19 ms
Number of shells for each [l, nctr] group
    [0 1] : 14
    [0 3] : 6
    [0 5] : 4
    [1 1] : 10
    [1 3] : 4
    [2 1] : 4
Number of shells for each [l, nctr] group
    [0 1] : 42
    [0 3] : 6
    [0 5] : 4
    [1 1] : 40
    [1 3] : 4
    [2 1] : 27
    [2 2] : 3
    [2 3] : 1
    [3 1] : 2
    [3 2] : 3
    [4 1] : 4
    CPU time for Initialize q_cond                                       0.35 sec, wall time      0.02 sec, GPU time     18.55 ms
    CPU time for Get AO pairing                                          0.08 sec, wall time      0.00 sec, GPU time      0.62 ms
    CPU time for AO indices                                              0.00 sec, wall time      0.00 sec, GPU time      0.20 ms
    CPU time for Aux AO indices                                          0.00 sec, wall time      0.00 sec, GPU time      0.38 ms
    CPU time for Get AO pairs                                            0.00 sec, wall time      0.00 sec, GPU time      0.84 ms
    CPU time for prepare intopt                                          0.46 sec, wall time      0.02 sec, GPU time     24.39 ms
size of aux basis 410
Saving CDERI on GPU
CDERI size 0.011 GB on Device 0
    CPU time for Initialize GPU cache on Device 0                        0.00 sec, wall time      0.00 sec, GPU time      0.42 ms
    CPU time for solve 5 / 21 on Device 0                                0.06 sec, wall time      0.00 sec, GPU time      4.14 ms
    CPU time for transfer data for 5 / 21 on Device 0                    0.00 sec, wall time      0.00 sec, GPU time      0.08 ms
    CPU time for solve 2 / 21 on Device 0                                0.00 sec, wall time      0.00 sec, GPU time      2.26 ms
    CPU time for transfer data for 2 / 21 on Device 0                    0.00 sec, wall time      0.00 sec, GPU time      0.07 ms
    CPU time for solve 4 / 21 on Device 0                                0.00 sec, wall time      0.00 sec, GPU time      2.36 ms
    CPU time for transfer data for 4 / 21 on Device 0                    0.00 sec, wall time      0.00 sec, GPU time      0.07 ms
    CPU time for solve 12 / 21 on Device 0                               0.00 sec, wall time      0.00 sec, GPU time      2.60 ms
    CPU time for transfer data for 12 / 21 on Device 0                   0.00 sec, wall time      0.00 sec, GPU time      0.07 ms
    CPU time for solve 3 / 21 on Device 0                                0.00 sec, wall time      0.00 sec, GPU time      2.10 ms
    CPU time for transfer data for 3 / 21 on Device 0                    0.00 sec, wall time      0.00 sec, GPU time      0.07 ms
    CPU time for solve 11 / 21 on Device 0                               0.00 sec, wall time      0.00 sec, GPU time      2.31 ms
    CPU time for transfer data for 11 / 21 on Device 0                   0.00 sec, wall time      0.00 sec, GPU time      0.07 ms
    CPU time for solve 14 / 21 on Device 0                               0.00 sec, wall time      0.00 sec, GPU time      3.08 ms
    CPU time for transfer data for 14 / 21 on Device 0                   0.00 sec, wall time      0.00 sec, GPU time      0.07 ms
    CPU time for solve 17 / 21 on Device 0                               0.00 sec, wall time      0.00 sec, GPU time      2.24 ms
    CPU time for transfer data for 17 / 21 on Device 0                   0.00 sec, wall time      0.00 sec, GPU time      0.07 ms
    CPU time for solve 1 / 21 on Device 0                                0.00 sec, wall time      0.00 sec, GPU time      2.05 ms
    CPU time for transfer data for 1 / 21 on Device 0                    0.00 sec, wall time      0.00 sec, GPU time      0.07 ms
    CPU time for solve 0 / 21 on Device 0                                0.00 sec, wall time      0.00 sec, GPU time      2.04 ms
    CPU time for transfer data for 0 / 21 on Device 0                    0.00 sec, wall time      0.00 sec, GPU time      0.07 ms
    CPU time for solve 16 / 21 on Device 0                               0.00 sec, wall time      0.00 sec, GPU time      2.17 ms
    CPU time for transfer data for 16 / 21 on Device 0                   0.00 sec, wall time      0.00 sec, GPU time      0.07 ms
    CPU time for solve 8 / 21 on Device 0                                0.00 sec, wall time      0.00 sec, GPU time      2.14 ms
    CPU time for transfer data for 8 / 21 on Device 0                    0.00 sec, wall time      0.00 sec, GPU time      0.07 ms
    CPU time for solve 10 / 21 on Device 0                               0.00 sec, wall time      0.00 sec, GPU time      2.10 ms
    CPU time for transfer data for 10 / 21 on Device 0                   0.00 sec, wall time      0.00 sec, GPU time      0.07 ms
    CPU time for solve 7 / 21 on Device 0                                0.00 sec, wall time      0.00 sec, GPU time      2.09 ms
    CPU time for transfer data for 7 / 21 on Device 0                    0.00 sec, wall time      0.00 sec, GPU time      0.07 ms
    CPU time for solve 20 / 21 on Device 0                               0.00 sec, wall time      0.00 sec, GPU time      2.93 ms
    CPU time for transfer data for 20 / 21 on Device 0                   0.00 sec, wall time      0.00 sec, GPU time      0.07 ms
    CPU time for solve 19 / 21 on Device 0                               0.00 sec, wall time      0.00 sec, GPU time      2.58 ms
    CPU time for transfer data for 19 / 21 on Device 0                   0.00 sec, wall time      0.00 sec, GPU time      0.07 ms
    CPU time for solve 15 / 21 on Device 0                               0.00 sec, wall time      0.00 sec, GPU time      2.09 ms
    CPU time for transfer data for 15 / 21 on Device 0                   0.00 sec, wall time      0.00 sec, GPU time      0.07 ms
    CPU time for solve 13 / 21 on Device 0                               0.00 sec, wall time      0.00 sec, GPU time      2.15 ms
    CPU time for transfer data for 13 / 21 on Device 0                   0.00 sec, wall time      0.00 sec, GPU time      0.07 ms
    CPU time for solve 6 / 21 on Device 0                                0.00 sec, wall time      0.00 sec, GPU time      2.04 ms
    CPU time for transfer data for 6 / 21 on Device 0                    0.00 sec, wall time      0.00 sec, GPU time      0.07 ms
    CPU time for solve 9 / 21 on Device 0                                0.00 sec, wall time      0.00 sec, GPU time      2.08 ms
    CPU time for transfer data for 9 / 21 on Device 0                    0.00 sec, wall time      0.00 sec, GPU time      0.07 ms
    CPU time for solve 18 / 21 on Device 0                               0.00 sec, wall time      0.00 sec, GPU time      2.12 ms
    CPU time for transfer data for 18 / 21 on Device 0                   0.00 sec, wall time      0.00 sec, GPU time      0.07 ms
    CPU time for cholesky_eri                                            0.78 sec, wall time      0.08 sec, GPU time     82.49 ms
    CPU time for init jk                                                 1.53 sec, wall time      0.13 sec, GPU time    126.82 ms
38.135 GB memory available on Device 0, block size = 256
    CPU time for vj and vk on Device 0                                   0.00 sec, wall time      0.00 sec, GPU time      4.79 ms
    CPU time for vj and vk                                               0.01 sec, wall time      0.01 sec, GPU time      7.06 ms
    CPU time for veff                                                    1.54 sec, wall time      0.14 sec, GPU time    135.38 ms
E1 = -508.5226031790755  Ecoul = 217.44732074283434  Exc = -26.852002765701982
init E= -192.743297455077
cond(S) = 3075.8609759796454
    CPU time for SCF initialization                                      3.56 sec, wall time      0.25 sec, GPU time    251.64 ms
    CPU time for DIIS                                                    0.00 sec, wall time      0.00 sec, GPU time      0.12 ms
    CPU time for eig                                                     0.00 sec, wall time      0.00 sec, GPU time      2.66 ms
  HOMO = -0.280398738950406  LUMO = 0.079956181136307  gap = 9.80576 eV
324608 grids on Device 0
0 - 324608 grids are calculated on Device 0.
mem_info: unallocated=39778.69 MB, used=43.53 MB, free=213.47 MB, free_blocks=35
41934.818816 MB memory is available on Device 0, block_size None
    CPU time for eval rho on Device 0                                    0.05 sec, wall time      0.05 sec, GPU time     47.26 ms
    CPU time for eval vxc on Device 0                                    0.00 sec, wall time      0.00 sec, GPU time      1.09 ms
0 - 324608 grids are calculated on Device 0.
mem_info: unallocated=39770.69 MB, used=51.93 MB, free=205.07 MB, free_blocks=35
41917.620736 MB memory is available on Device 0, block_size None
    CPU time for eval integration on 0                                   0.02 sec, wall time      0.02 sec, GPU time     18.80 ms
    CPU time for nr_rks                                                  0.07 sec, wall time      0.07 sec, GPU time     69.90 ms
nelec by numeric integration = 31.999998935977334
    CPU time for vxc                                                     0.07 sec, wall time      0.07 sec, GPU time     70.07 ms
38.134 GB memory available on Device 0, block size = 256
    CPU time for vj and vk on Device 0                                   0.00 sec, wall time      0.00 sec, GPU time      3.22 ms
    CPU time for vj and vk                                               0.01 sec, wall time      0.01 sec, GPU time      6.01 ms
    CPU time for veff                                                    0.01 sec, wall time      0.01 sec, GPU time      7.33 ms
    CPU time for veff                                                    0.08 sec, wall time      0.08 sec, GPU time     79.80 ms
E1 = -508.52259157290837  Ecoul = 217.44732230611947  Exc = -26.852015038921227
    CPU time for cycle=1                                                 0.08 sec, wall time      0.08 sec, GPU time     84.82 ms
cycle= 1 E= -192.743296558844  delta_E= 8.96e-07  |g|= 0.000155  |ddm|= 0.00128
diis-c [-2.39724423e-08  1.00000000e+00]
    CPU time for DIIS                                                    0.00 sec, wall time      0.00 sec, GPU time      1.76 ms
    CPU time for eig                                                     0.00 sec, wall time      0.00 sec, GPU time      3.24 ms
  HOMO = -0.280410997118453  LUMO = 0.0799558750558577  gap = 9.80608 eV
324608 grids on Device 0
0 - 324608 grids are calculated on Device 0.
mem_info: unallocated=39778.69 MB, used=43.64 MB, free=213.36 MB, free_blocks=33
41934.697984 MB memory is available on Device 0, block_size None
    CPU time for eval rho on Device 0                                    0.04 sec, wall time      0.04 sec, GPU time     37.11 ms
    CPU time for eval vxc on Device 0                                    0.00 sec, wall time      0.00 sec, GPU time      0.95 ms
0 - 324608 grids are calculated on Device 0.
mem_info: unallocated=39770.69 MB, used=52.05 MB, free=204.96 MB, free_blocks=33
41917.499904 MB memory is available on Device 0, block_size None
    CPU time for eval integration on 0                                   0.02 sec, wall time      0.02 sec, GPU time     18.60 ms
    CPU time for nr_rks                                                  0.06 sec, wall time      0.06 sec, GPU time     59.01 ms
nelec by numeric integration = 31.999998935958388
    CPU time for vxc                                                     0.06 sec, wall time      0.06 sec, GPU time     59.16 ms
38.134 GB memory available on Device 0, block size = 256
    CPU time for vj and vk on Device 0                                   0.01 sec, wall time      0.01 sec, GPU time      6.59 ms
    CPU time for vj and vk                                               0.01 sec, wall time      0.01 sec, GPU time      9.71 ms
    CPU time for veff                                                    0.01 sec, wall time      0.01 sec, GPU time     11.01 ms
    CPU time for veff                                                    0.07 sec, wall time      0.07 sec, GPU time     72.36 ms
E1 = -508.52241650730525  Ecoul = 217.44712759210137  Exc = -26.851995394855948
    CPU time for cycle=2                                                 0.08 sec, wall time      0.08 sec, GPU time     79.59 ms
cycle= 2 E= -192.743296563194  delta_E= -4.35e-09  |g|= 0.000109  |ddm|= 0.000329
diis-c [-1.90586792e-09  4.01858621e-01  5.98141379e-01]
    CPU time for DIIS                                                    0.00 sec, wall time      0.00 sec, GPU time      1.99 ms
    CPU time for eig                                                     0.00 sec, wall time      0.00 sec, GPU time      3.23 ms
  HOMO = -0.280406544607938  LUMO = 0.0799531491227172  gap = 9.80589 eV
324608 grids on Device 0
0 - 324608 grids are calculated on Device 0.
mem_info: unallocated=39778.69 MB, used=43.70 MB, free=213.30 MB, free_blocks=34
41934.637568 MB memory is available on Device 0, block_size None
    CPU time for eval rho on Device 0                                    0.05 sec, wall time      0.05 sec, GPU time     50.45 ms
    CPU time for eval vxc on Device 0                                    0.00 sec, wall time      0.00 sec, GPU time      0.95 ms
0 - 324608 grids are calculated on Device 0.
mem_info: unallocated=39770.69 MB, used=52.10 MB, free=204.90 MB, free_blocks=34
41917.439488 MB memory is available on Device 0, block_size None
    CPU time for eval integration on 0                                   0.02 sec, wall time      0.02 sec, GPU time     18.52 ms
    CPU time for nr_rks                                                  0.07 sec, wall time      0.07 sec, GPU time     72.30 ms
nelec by numeric integration = 31.999998935960505
    CPU time for vxc                                                     0.07 sec, wall time      0.07 sec, GPU time     72.45 ms
38.134 GB memory available on Device 0, block size = 256
    CPU time for vj and vk on Device 0                                   0.00 sec, wall time      0.00 sec, GPU time      4.66 ms
    CPU time for vj and vk                                               0.01 sec, wall time      0.01 sec, GPU time      7.67 ms
    CPU time for veff                                                    0.01 sec, wall time      0.01 sec, GPU time      9.02 ms
    CPU time for veff                                                    0.08 sec, wall time      0.08 sec, GPU time     83.73 ms
E1 = -508.52248769503854  Ecoul = 217.4472073722788  Exc = -26.852003989805468
    CPU time for cycle=3                                                 0.09 sec, wall time      0.09 sec, GPU time     91.18 ms
cycle= 3 E= -192.743296565699  delta_E= -2.51e-09  |g|= 3.25e-05  |ddm|= 0.000128
diis-c [-2.17566631e-10  9.23603071e-02  2.58246403e-01  6.49393290e-01]
    CPU time for DIIS                                                    0.00 sec, wall time      0.00 sec, GPU time      2.33 ms
    CPU time for eig                                                     0.00 sec, wall time      0.00 sec, GPU time      3.27 ms
  HOMO = -0.280409165313301  LUMO = 0.0799536714901724  gap = 9.80597 eV
324608 grids on Device 0
0 - 324608 grids are calculated on Device 0.
mem_info: unallocated=39778.69 MB, used=43.76 MB, free=213.24 MB, free_blocks=33
41934.577152 MB memory is available on Device 0, block_size None
    CPU time for eval rho on Device 0                                    0.04 sec, wall time      0.04 sec, GPU time     37.56 ms
    CPU time for eval vxc on Device 0                                    0.00 sec, wall time      0.00 sec, GPU time      0.96 ms
0 - 324608 grids are calculated on Device 0.
mem_info: unallocated=39770.69 MB, used=52.16 MB, free=204.84 MB, free_blocks=33
41917.379072 MB memory is available on Device 0, block_size None
    CPU time for eval integration on 0                                   0.02 sec, wall time      0.02 sec, GPU time     18.37 ms
    CPU time for nr_rks                                                  0.06 sec, wall time      0.06 sec, GPU time     59.19 ms
nelec by numeric integration = 31.999998935967593
    CPU time for vxc                                                     0.06 sec, wall time      0.06 sec, GPU time     59.35 ms
38.134 GB memory available on Device 0, block size = 256
    CPU time for vj and vk on Device 0                                   0.00 sec, wall time      0.00 sec, GPU time      3.14 ms
    CPU time for vj and vk                                               0.01 sec, wall time      0.01 sec, GPU time      5.91 ms
    CPU time for veff                                                    0.01 sec, wall time      0.01 sec, GPU time      7.19 ms
    CPU time for veff                                                    0.07 sec, wall time      0.07 sec, GPU time     68.72 ms
E1 = -508.52252964001383  Ecoul = 217.44725358575542  Exc = -26.852008258531672
    CPU time for cycle=4                                                 0.08 sec, wall time      0.08 sec, GPU time     76.54 ms
cycle= 4 E= -192.743296565924  delta_E= -2.25e-10  |g|= 1.08e-05  |ddm|= 3.53e-05
diis-c [-2.56311078e-11 -2.49307495e-03  4.98298428e-02  2.86472634e-01
  6.66190598e-01]
    CPU time for DIIS                                                    0.00 sec, wall time      0.00 sec, GPU time      2.72 ms
    CPU time for eig                                                     0.00 sec, wall time      0.00 sec, GPU time      3.24 ms
  HOMO = -0.280407172736976  LUMO = 0.0799537508835135  gap = 9.80592 eV
324608 grids on Device 0
0 - 324608 grids are calculated on Device 0.
mem_info: unallocated=39778.69 MB, used=43.82 MB, free=213.18 MB, free_blocks=33
41934.516736 MB memory is available on Device 0, block_size None
    CPU time for eval rho on Device 0                                    0.05 sec, wall time      0.05 sec, GPU time     52.24 ms
    CPU time for eval vxc on Device 0                                    0.00 sec, wall time      0.00 sec, GPU time      0.95 ms
0 - 324608 grids are calculated on Device 0.
mem_info: unallocated=39770.69 MB, used=52.22 MB, free=204.78 MB, free_blocks=33
41917.318656 MB memory is available on Device 0, block_size None
    CPU time for eval integration on 0                                   0.02 sec, wall time      0.02 sec, GPU time     18.20 ms
    CPU time for nr_rks                                                  0.07 sec, wall time      0.07 sec, GPU time     73.74 ms
nelec by numeric integration = 31.99999893596434
    CPU time for vxc                                                     0.07 sec, wall time      0.07 sec, GPU time     73.91 ms
38.134 GB memory available on Device 0, block size = 256
    CPU time for vj and vk on Device 0                                   0.01 sec, wall time      0.01 sec, GPU time      5.75 ms
    CPU time for vj and vk                                               0.01 sec, wall time      0.01 sec, GPU time      8.77 ms
    CPU time for veff                                                    0.01 sec, wall time      0.01 sec, GPU time     10.06 ms
    CPU time for veff                                                    0.09 sec, wall time      0.09 sec, GPU time     86.14 ms
E1 = -508.5224861230299  Ecoul = 217.44720502942025  Exc = -26.852003219199524
    CPU time for cycle=5                                                 0.09 sec, wall time      0.09 sec, GPU time     94.43 ms
cycle= 5 E= -192.743296565943  delta_E= -1.91e-11  |g|= 5.27e-06  |ddm|= 1.36e-05
    CPU time for SCF                                                     3.99 sec, wall time      0.68 sec, GPU time    679.75 ms
converged SCF energy = -192.743296565943


******** <class 'gpu4pyscf.grad.rhf.Gradients_Scanner'> for <class 'pyscf.scf.hf.DFRKS_Scanner'> ********
unit = Eh/Bohr
max_memory 4000 MB (current use 1115 MB)
Number of shells for each [l, nctr] group
    [0 1] : 14
    [0 3] : 6
    [0 5] : 4
    [1 1] : 10
    [1 3] : 4
    [2 1] : 4
    CPU time for Initialize q_cond                                       0.44 sec, wall time      0.02 sec, GPU time     16.42 ms
    CPU time for Get AO pairing                                          0.00 sec, wall time      0.00 sec, GPU time      0.90 ms
    CPU time for AO indices                                              0.00 sec, wall time      0.00 sec, GPU time      0.21 ms
    CPU time for Initialize GPU cache                                    0.00 sec, wall time      0.00 sec, GPU time      0.46 ms
    CPU time for gradients of h1e                                        2.60 sec, wall time      0.10 sec, GPU time    101.26 ms
324608 grids on Device 0
0 - 324608 grids are calculated on Device 0.
mem_info: unallocated=39778.69 MB, used=23.91 MB, free=233.10 MB, free_blocks=38
41955.395072 MB memory is available on Device 0, block_size None
    CPU time for gradient of vxc                                         0.21 sec, wall time      0.18 sec, GPU time    176.53 ms
    CPU time for grad vxc                                                0.21 sec, wall time      0.18 sec, GPU time    177.90 ms
    CPU time for vxc total                                               0.21 sec, wall time      0.18 sec, GPU time    178.20 ms
Number of shells for each [l, nprim] group
    [0 5] : 4
    [0 3] : 6
    [0 1] : 14
    [1 3] : 4
    [1 1] : 10
    [2 1] : 4
Number of shells for each [l, nprim] group
    [0 5] : 4
    [0 3] : 6
    [0 1] : 42
    [1 3] : 4
    [1 1] : 40
    [2 3] : 1
    [2 2] : 3
    [2 1] : 27
    [3 2] : 3
    [3 1] : 2
    [4 1] : 4
dm_factor shape (90, 16)
sp_batches = 1, ksh_batches = 11
41.711 GB free memory. nao_pair=4195 naux=480 batch_size=480 blksize=480
    CPU time for contract dm                                             0.04 sec, wall time      0.04 sec, GPU time     35.50 ms
int2c2e_kernel, nimgs = 1
    CPU time for contract int3c2e_ejk_ip1                                0.04 sec, wall time      0.04 sec, GPU time     50.87 ms
int2c2e_kernel, nimgs = 1
    CPU time for contract int2c2e_ip1                                    0.04 sec, wall time      0.04 sec, GPU time     21.08 ms
    CPU time for gradients of veff                                       0.36 sec, wall time      0.32 sec, GPU time    321.08 ms
Computing Gradients of NR-HF Coulomb repulsion
    CPU time for gradients of 2e part                                    0.36 sec, wall time      0.32 sec, GPU time    321.19 ms
    CPU time for gradients of electronic part                            2.96 sec, wall time      0.42 sec, GPU time    423.23 ms
    CPU time for SCF gradients                                           2.96 sec, wall time      0.42 sec, GPU time    423.67 ms
--------------- DFRKS_Scanner gradients ---------------
         x                y                z
0 O    -0.0000152397     0.0000104227     0.0000072834
1 C    -0.0000037136     0.0000249927    -0.0000020364
2 C     0.0000070494    -0.0000458629    -0.0000079191
3 C    -0.0000014827    -0.0000167734     0.0000062026
4 H     0.0000083357    -0.0000037371    -0.0000012580
5 H    -0.0000006680     0.0000081584     0.0000022254
6 H     0.0000015487     0.0000060217     0.0000030304
7 H     0.0000001015     0.0000028133    -0.0000025564
8 H     0.0000014242     0.0000035592    -0.0000030466
9 H     0.0000028441     0.0000083268     0.0000004557
----------------------------------------------
cycle 11: E = -192.743296566  dE = -1.29286e-07  norm(grad) = 6.24118e-05


******** <class 'gpu4pyscf.df.df_jk.DFRKS'> ********
method = DFRKS
initial guess = minao
damping factor = None
level_shift factor = None
DIIS = <class 'gpu4pyscf.scf.diis.CDIIS'>
diis_start_cycle = 1
diis_space = 8
diis_damp = 0
SCF conv_tol = 1e-10
SCF conv_tol_grad = None
SCF max_cycles = 50
direct_scf = False
XC library gpu4pyscf.dft.libxc version 7.0.0 (CUDA)
    unable to decode the reference due to https://github.com/NVIDIA/cuda-python/issues/29
XC functionals = PBE0
radial grids: 
Treutler-Ahlrichs [JCP 102, 346 (1995); DOI:10.1063/1.469408] (M4) radial grids

becke partition: Becke, JCP 88, 2547 (1988); DOI:10.1063/1.454033
pruning grids: <function nwchem_prune at 0x14b55ceca7a0>
grids dens level: 3
symmetrized grids: False
atomic radii adjust function: <function treutler_atomic_radii_adjust at 0x14b55ceca840>
User specified grid scheme (99, 590)
small_rho_cutoff = 0
Set gradient conv threshold to 1e-05
    CPU time for generating initial guess                                5.08 sec, wall time      0.19 sec, GPU time    193.03 ms
Number of shells for each [l, nprim] group
    [0 5] : 4
    [0 3] : 6
    [0 1] : 14
    [1 3] : 4
    [1 1] : 10
    [2 1] : 4
sp_blocks = 21, ksh_blocks = 1, shm_size = 59512 B
    CPU time for processing contract_int3c2e_auxvec                      0.00 sec, wall time      0.00 sec, GPU time      2.40 ms
Number of shells for each [l, nprim] group
    [0 5] : 4
    [0 3] : 6
    [0 1] : 14
    [1 3] : 4
    [1 1] : 10
    [2 1] : 4
Number of shells for each [l, nprim] group
    [0 5] : 4
    [0 3] : 6
    [0 1] : 14
    [1 3] : 4
    [1 1] : 10
    [2 1] : 4
    CPU time for hcore                                                   0.25 sec, wall time      0.04 sec, GPU time     42.95 ms
atom O rad-grids = 99, ang-grids = [ 50  50  50  50  50  50  50  50  50  50  50  50  50  50  50  50  50  50
  50  50  50  50  50  50  50  50  50  50  50  50  86  86  86  86  86  86
  86  86  86  86  86  86  86 434 434 434 434 434 434 434 434 590 590 590
 590 590 590 590 590 590 590 590 590 590 590 590 590 590 590 590 590 590
 590 590 590 590 590 590 434 434 434 434 434 434 434 434 434 434 434 434
 434 434 434 434 434 434 434 434 434]
atom C rad-grids = 99, ang-grids = [ 50  50  50  50  50  50  50  50  50  50  50  50  50  50  50  50  50  50
  50  50  50  50  50  50  50  50  50  50  50  50  86  86  86  86  86  86
  86  86  86  86  86  86 434 434 434 434 434 434 434 434 434 590 590 590
 590 590 590 590 590 590 590 590 590 590 590 590 590 590 590 590 590 590
 590 590 590 590 590 434 434 434 434 434 434 434 434 434 434 434 434 434
 434 434 434 434 434 434 434 434 434]
atom H rad-grids = 99, ang-grids = [ 50  50  50  50  50  50  50  50  50  50  50  50  50  50  50  50  50  50
  50  50  50  50  50  50  50  50  50  50  50  50  86  86  86  86  86  86
  86 434 434 434 434 434 434 434 434 434 434 590 590 590 590 590 590 590
 590 590 590 590 590 590 590 590 590 590 590 590 590 590 590 590 590 590
 590 590 434 434 434 434 434 434 434 434 434 434 434 434 434 434 434 434
 434 434 434 434 434 434 434 434 434]
    CPU time for generating atomic grids                                 0.01 sec, wall time      0.01 sec, GPU time      6.37 ms
Padding 164 grids
    CPU time for sorting grids                                           0.00 sec, wall time      0.00 sec, GPU time      0.97 ms
tot grids = 324608
    CPU time for setting up grids                                        0.01 sec, wall time      0.01 sec, GPU time      7.45 ms
Number of shells for each [l, nctr] group
    [0 1] : 14
    [0 3] : 6
    [0 5] : 4
    [1 1] : 10
    [1 3] : 4
    [2 1] : 4
324608 grids on Device 0
0 - 324608 grids are calculated on Device 0.
mem_info: unallocated=39778.69 MB, used=29.01 MB, free=227.99 MB, free_blocks=37
41950.045184 MB memory is available on Device 0, block_size None
    CPU time for eval rho on Device 0                                    0.04 sec, wall time      0.04 sec, GPU time     40.38 ms
    CPU time for eval vxc on Device 0                                    0.00 sec, wall time      0.00 sec, GPU time      1.08 ms
0 - 324608 grids are calculated on Device 0.
mem_info: unallocated=39770.69 MB, used=37.42 MB, free=219.58 MB, free_blocks=34
41932.832768 MB memory is available on Device 0, block_size None
    CPU time for eval integration on 0                                   0.02 sec, wall time      0.02 sec, GPU time     18.68 ms
    CPU time for nr_rks                                                  0.06 sec, wall time      0.06 sec, GPU time     63.57 ms
nelec by numeric integration = 31.969082407946292
    CPU time for vxc                                                     0.07 sec, wall time      0.07 sec, GPU time     71.21 ms
Build CDERI ...
Psi4 predefined JKFIT basis set def2-svp-jkfit for HF
Default auxbasis def2-svp-jkfit is applied universally
num shells = 136, num cGTOs = 410
    CPU time for 2c2e                                                    0.31 sec, wall time      0.03 sec, GPU time     30.74 ms
Number of shells for each [l, nctr] group
    [0 1] : 14
    [0 3] : 6
    [0 5] : 4
    [1 1] : 10
    [1 3] : 4
    [2 1] : 4
Number of shells for each [l, nctr] group
    [0 1] : 42
    [0 3] : 6
    [0 5] : 4
    [1 1] : 40
    [1 3] : 4
    [2 1] : 27
    [2 2] : 3
    [2 3] : 1
    [3 1] : 2
    [3 2] : 3
    [4 1] : 4
    CPU time for Initialize q_cond                                       0.42 sec, wall time      0.02 sec, GPU time     16.28 ms
    CPU time for Get AO pairing                                          0.00 sec, wall time      0.00 sec, GPU time      0.99 ms
    CPU time for AO indices                                              0.00 sec, wall time      0.00 sec, GPU time      0.31 ms
    CPU time for Aux AO indices                                          0.00 sec, wall time      0.00 sec, GPU time      0.59 ms
    CPU time for Get AO pairs                                            0.10 sec, wall time      0.00 sec, GPU time      1.45 ms
    CPU time for prepare intopt                                          0.73 sec, wall time      0.03 sec, GPU time     28.07 ms
size of aux basis 410
Saving CDERI on GPU
CDERI size 0.011 GB on Device 0
    CPU time for Initialize GPU cache on Device 0                        0.00 sec, wall time      0.00 sec, GPU time      0.31 ms
    CPU time for solve 5 / 21 on Device 0                                0.10 sec, wall time      0.00 sec, GPU time      3.48 ms
    CPU time for transfer data for 5 / 21 on Device 0                    0.00 sec, wall time      0.00 sec, GPU time      0.08 ms
    CPU time for solve 2 / 21 on Device 0                                0.01 sec, wall time      0.00 sec, GPU time      2.24 ms
    CPU time for transfer data for 2 / 21 on Device 0                    0.00 sec, wall time      0.00 sec, GPU time      0.07 ms
    CPU time for solve 4 / 21 on Device 0                                0.03 sec, wall time      0.00 sec, GPU time      2.94 ms
    CPU time for transfer data for 4 / 21 on Device 0                    0.00 sec, wall time      0.00 sec, GPU time      0.07 ms
    CPU time for solve 12 / 21 on Device 0                               0.00 sec, wall time      0.00 sec, GPU time      2.59 ms
    CPU time for transfer data for 12 / 21 on Device 0                   0.00 sec, wall time      0.00 sec, GPU time      0.07 ms
    CPU time for solve 3 / 21 on Device 0                                0.00 sec, wall time      0.00 sec, GPU time      2.10 ms
    CPU time for transfer data for 3 / 21 on Device 0                    0.00 sec, wall time      0.00 sec, GPU time      0.07 ms
    CPU time for solve 11 / 21 on Device 0                               0.00 sec, wall time      0.00 sec, GPU time      2.35 ms
    CPU time for transfer data for 11 / 21 on Device 0                   0.00 sec, wall time      0.00 sec, GPU time      0.07 ms
    CPU time for solve 14 / 21 on Device 0                               0.00 sec, wall time      0.00 sec, GPU time      3.28 ms
    CPU time for transfer data for 14 / 21 on Device 0                   0.00 sec, wall time      0.00 sec, GPU time      0.07 ms
    CPU time for solve 17 / 21 on Device 0                               0.00 sec, wall time      0.00 sec, GPU time      2.23 ms
    CPU time for transfer data for 17 / 21 on Device 0                   0.00 sec, wall time      0.00 sec, GPU time      0.07 ms
    CPU time for solve 1 / 21 on Device 0                                0.00 sec, wall time      0.00 sec, GPU time      2.10 ms
    CPU time for transfer data for 1 / 21 on Device 0                    0.00 sec, wall time      0.00 sec, GPU time      0.08 ms
    CPU time for solve 0 / 21 on Device 0                                0.00 sec, wall time      0.00 sec, GPU time      2.08 ms
    CPU time for transfer data for 0 / 21 on Device 0                    0.00 sec, wall time      0.00 sec, GPU time      0.07 ms
    CPU time for solve 16 / 21 on Device 0                               0.00 sec, wall time      0.00 sec, GPU time      2.22 ms
    CPU time for transfer data for 16 / 21 on Device 0                   0.00 sec, wall time      0.00 sec, GPU time      0.07 ms
    CPU time for solve 8 / 21 on Device 0                                0.00 sec, wall time      0.00 sec, GPU time      2.16 ms
    CPU time for transfer data for 8 / 21 on Device 0                    0.00 sec, wall time      0.00 sec, GPU time      0.07 ms
    CPU time for solve 10 / 21 on Device 0                               0.00 sec, wall time      0.00 sec, GPU time      2.08 ms
    CPU time for transfer data for 10 / 21 on Device 0                   0.00 sec, wall time      0.00 sec, GPU time      0.07 ms
    CPU time for solve 7 / 21 on Device 0                                0.00 sec, wall time      0.00 sec, GPU time      2.08 ms
    CPU time for transfer data for 7 / 21 on Device 0                    0.00 sec, wall time      0.00 sec, GPU time      0.07 ms
    CPU time for solve 20 / 21 on Device 0                               0.00 sec, wall time      0.00 sec, GPU time      2.71 ms
    CPU time for transfer data for 20 / 21 on Device 0                   0.00 sec, wall time      0.00 sec, GPU time      0.07 ms
    CPU time for solve 19 / 21 on Device 0                               0.00 sec, wall time      0.00 sec, GPU time      2.17 ms
    CPU time for transfer data for 19 / 21 on Device 0                   0.00 sec, wall time      0.00 sec, GPU time      0.07 ms
    CPU time for solve 15 / 21 on Device 0                               0.00 sec, wall time      0.00 sec, GPU time      2.10 ms
    CPU time for transfer data for 15 / 21 on Device 0                   0.00 sec, wall time      0.00 sec, GPU time      0.07 ms
    CPU time for solve 13 / 21 on Device 0                               0.00 sec, wall time      0.00 sec, GPU time      2.14 ms
    CPU time for transfer data for 13 / 21 on Device 0                   0.00 sec, wall time      0.00 sec, GPU time      0.07 ms
    CPU time for solve 6 / 21 on Device 0                                0.00 sec, wall time      0.00 sec, GPU time      2.03 ms
    CPU time for transfer data for 6 / 21 on Device 0                    0.00 sec, wall time      0.00 sec, GPU time      0.07 ms
    CPU time for solve 9 / 21 on Device 0                                0.00 sec, wall time      0.00 sec, GPU time      2.12 ms
    CPU time for transfer data for 9 / 21 on Device 0                    0.00 sec, wall time      0.00 sec, GPU time      0.07 ms
    CPU time for solve 18 / 21 on Device 0                               0.00 sec, wall time      0.00 sec, GPU time      2.14 ms
    CPU time for transfer data for 18 / 21 on Device 0                   0.00 sec, wall time      0.00 sec, GPU time      0.07 ms
    CPU time for cholesky_eri                                            1.01 sec, wall time      0.08 sec, GPU time     80.77 ms
    CPU time for init jk                                                 1.32 sec, wall time      0.11 sec, GPU time    111.64 ms
38.135 GB memory available on Device 0, block size = 256
    CPU time for vj and vk on Device 0                                   0.01 sec, wall time      0.01 sec, GPU time      5.37 ms
    CPU time for vj and vk                                               0.01 sec, wall time      0.01 sec, GPU time      7.40 ms
    CPU time for veff                                                    1.32 sec, wall time      0.12 sec, GPU time    120.42 ms
E1 = -506.1109623745358  Ecoul = 214.4884334169637  Exc = -26.73434755351478
init E= -193.172888764221
cond(S) = 3075.8609759796454
    CPU time for SCF initialization                                      6.73 sec, wall time      0.43 sec, GPU time    431.77 ms
    CPU time for DIIS                                                    0.00 sec, wall time      0.00 sec, GPU time      0.11 ms
    CPU time for eig                                                     0.00 sec, wall time      0.00 sec, GPU time      2.62 ms
  HOMO = -0.348719372687132  LUMO = 0.0269942555674518  gap = 10.22369 eV
324608 grids on Device 0
0 - 324608 grids are calculated on Device 0.
mem_info: unallocated=39778.69 MB, used=43.46 MB, free=213.54 MB, free_blocks=34
41934.89152 MB memory is available on Device 0, block_size None
    CPU time for eval rho on Device 0                                    0.05 sec, wall time      0.05 sec, GPU time     48.96 ms
    CPU time for eval vxc on Device 0                                    0.00 sec, wall time      0.00 sec, GPU time      1.00 ms
0 - 324608 grids are calculated on Device 0.
mem_info: unallocated=39770.69 MB, used=51.86 MB, free=205.14 MB, free_blocks=33
41917.69344 MB memory is available on Device 0, block_size None
    CPU time for eval integration on 0                                   0.02 sec, wall time      0.02 sec, GPU time     18.26 ms
    CPU time for nr_rks                                                  0.07 sec, wall time      0.07 sec, GPU time     70.71 ms
nelec by numeric integration = 31.99999899540554
    CPU time for vxc                                                     0.07 sec, wall time      0.07 sec, GPU time     70.88 ms
38.134 GB memory available on Device 0, block size = 256
    CPU time for vj and vk on Device 0                                   0.01 sec, wall time      0.01 sec, GPU time      5.82 ms
    CPU time for vj and vk                                               0.01 sec, wall time      0.01 sec, GPU time      8.80 ms
    CPU time for veff                                                    0.01 sec, wall time      0.01 sec, GPU time     10.10 ms
    CPU time for veff                                                    0.08 sec, wall time      0.08 sec, GPU time     83.15 ms
E1 = -510.5712466858264  Ecoul = 219.80199287848617  Exc = -27.091412372171785
    CPU time for cycle=1                                                 0.09 sec, wall time      0.09 sec, GPU time     88.11 ms
cycle= 1 E= -192.676678432646  delta_E= 0.496  |g|= 0.57  |ddm|= 2.98
diis-c [-0.32441604  1.        ]
    CPU time for DIIS                                                    0.00 sec, wall time      0.00 sec, GPU time      1.72 ms
    CPU time for eig                                                     0.00 sec, wall time      0.00 sec, GPU time      3.30 ms
  HOMO = -0.148108570873069  LUMO = 0.0823557491980096  gap = 6.27125 eV
324608 grids on Device 0
0 - 324608 grids are calculated on Device 0.
mem_info: unallocated=39778.69 MB, used=43.52 MB, free=213.48 MB, free_blocks=31
41934.83008 MB memory is available on Device 0, block_size None
    CPU time for eval rho on Device 0                                    0.04 sec, wall time      0.04 sec, GPU time     36.23 ms
    CPU time for eval vxc on Device 0                                    0.00 sec, wall time      0.00 sec, GPU time      0.94 ms
0 - 324608 grids are calculated on Device 0.
mem_info: unallocated=39770.69 MB, used=51.92 MB, free=205.08 MB, free_blocks=30
41917.632 MB memory is available on Device 0, block_size None
    CPU time for eval integration on 0                                   0.02 sec, wall time      0.02 sec, GPU time     18.63 ms
    CPU time for nr_rks                                                  0.06 sec, wall time      0.06 sec, GPU time     58.12 ms
nelec by numeric integration = 31.999998721718292
    CPU time for vxc                                                     0.06 sec, wall time      0.06 sec, GPU time     58.28 ms
38.134 GB memory available on Device 0, block size = 256
    CPU time for vj and vk on Device 0                                   0.00 sec, wall time      0.00 sec, GPU time      3.15 ms
    CPU time for vj and vk                                               0.01 sec, wall time      0.01 sec, GPU time      5.97 ms
    CPU time for veff                                                    0.01 sec, wall time      0.01 sec, GPU time      7.28 ms
    CPU time for veff                                                    0.07 sec, wall time      0.07 sec, GPU time     67.71 ms
E1 = -505.71942240225303  Ecoul = 214.50333743386895  Exc = -26.54570548108799
    CPU time for cycle=2                                                 0.08 sec, wall time      0.07 sec, GPU time     74.95 ms
cycle= 2 E= -192.577802702606  delta_E= 0.0989  |g|= 0.919  |ddm|= 1.41
diis-c [-0.01583367  0.62111622  0.37888378]
    CPU time for DIIS                                                    0.00 sec, wall time      0.00 sec, GPU time      1.95 ms
    CPU time for eig                                                     0.00 sec, wall time      0.00 sec, GPU time      3.22 ms
  HOMO = -0.279088608554398  LUMO = 0.0831919766571709  gap = 9.85816 eV
324608 grids on Device 0
0 - 324608 grids are calculated on Device 0.
mem_info: unallocated=39778.69 MB, used=43.58 MB, free=213.43 MB, free_blocks=34
41934.769664 MB memory is available on Device 0, block_size None
    CPU time for eval rho on Device 0                                    0.04 sec, wall time      0.04 sec, GPU time     36.74 ms
    CPU time for eval vxc on Device 0                                    0.00 sec, wall time      0.00 sec, GPU time      0.93 ms
0 - 324608 grids are calculated on Device 0.
mem_info: unallocated=39770.69 MB, used=51.98 MB, free=205.02 MB, free_blocks=33
41917.571584 MB memory is available on Device 0, block_size None
    CPU time for eval integration on 0                                   0.02 sec, wall time      0.02 sec, GPU time     18.41 ms
    CPU time for nr_rks                                                  0.06 sec, wall time      0.06 sec, GPU time     58.39 ms
nelec by numeric integration = 31.999998919916642
    CPU time for vxc                                                     0.06 sec, wall time      0.06 sec, GPU time     58.54 ms
38.134 GB memory available on Device 0, block size = 256
    CPU time for vj and vk on Device 0                                   0.01 sec, wall time      0.01 sec, GPU time      6.41 ms
    CPU time for vj and vk                                               0.01 sec, wall time      0.01 sec, GPU time      9.53 ms
    CPU time for veff                                                    0.01 sec, wall time      0.01 sec, GPU time     10.85 ms
    CPU time for veff                                                    0.07 sec, wall time      0.07 sec, GPU time     71.58 ms
E1 = -508.34584294990424  Ecoul = 217.2592244153776  Exc = -26.839321702650842
    CPU time for cycle=3                                                 0.08 sec, wall time      0.08 sec, GPU time     78.98 ms
cycle= 3 E= -192.741952490311  delta_E= -0.164  |g|= 0.0759  |ddm|= 0.925
diis-c [-0.00172271  0.1861599   0.13546873  0.67837137]
    CPU time for DIIS                                                    0.00 sec, wall time      0.00 sec, GPU time      2.29 ms
    CPU time for eig                                                     0.00 sec, wall time      0.00 sec, GPU time      3.23 ms
  HOMO = -0.280659705472468  LUMO = 0.0786618273033572  gap = 9.77764 eV
324608 grids on Device 0
0 - 324608 grids are calculated on Device 0.
mem_info: unallocated=39778.69 MB, used=43.63 MB, free=213.37 MB, free_blocks=35
41934.709248 MB memory is available on Device 0, block_size None
    CPU time for eval rho on Device 0                                    0.04 sec, wall time      0.04 sec, GPU time     37.36 ms
    CPU time for eval vxc on Device 0                                    0.00 sec, wall time      0.00 sec, GPU time      0.94 ms
0 - 324608 grids are calculated on Device 0.
mem_info: unallocated=39770.69 MB, used=52.03 MB, free=204.97 MB, free_blocks=34
41917.511168 MB memory is available on Device 0, block_size None
    CPU time for eval integration on 0                                   0.02 sec, wall time      0.02 sec, GPU time     18.41 ms
    CPU time for nr_rks                                                  0.06 sec, wall time      0.06 sec, GPU time     59.07 ms
nelec by numeric integration = 31.99999894332801
    CPU time for vxc                                                     0.06 sec, wall time      0.06 sec, GPU time     59.23 ms
38.134 GB memory available on Device 0, block size = 256
    CPU time for vj and vk on Device 0                                   0.01 sec, wall time      0.01 sec, GPU time      6.44 ms
    CPU time for vj and vk                                               0.01 sec, wall time      0.01 sec, GPU time      9.57 ms
    CPU time for veff                                                    0.01 sec, wall time      0.01 sec, GPU time     10.88 ms
    CPU time for veff                                                    0.07 sec, wall time      0.07 sec, GPU time     72.26 ms
E1 = -508.62898158615894  Ecoul = 217.561910495711  Exc = -26.85999858815252
    CPU time for cycle=4                                                 0.08 sec, wall time      0.08 sec, GPU time     80.03 ms
cycle= 4 E= -192.743081931734  delta_E= -0.00113  |g|= 0.0292  |ddm|= 0.0835
diis-c [-8.63333528e-05  2.07439861e-02  2.01695679e-02  2.98210455e-01
  6.60875991e-01]
    CPU time for DIIS                                                    0.00 sec, wall time      0.00 sec, GPU time      2.63 ms
    CPU time for eig                                                     0.00 sec, wall time      0.00 sec, GPU time      3.23 ms
  HOMO = -0.280213438508255  LUMO = 0.0800185327061599  gap = 9.80241 eV
324608 grids on Device 0
0 - 324608 grids are calculated on Device 0.
mem_info: unallocated=39778.69 MB, used=43.69 MB, free=213.31 MB, free_blocks=34
41934.648832 MB memory is available on Device 0, block_size None
    CPU time for eval rho on Device 0                                    0.04 sec, wall time      0.04 sec, GPU time     36.81 ms
    CPU time for eval vxc on Device 0                                    0.00 sec, wall time      0.00 sec, GPU time      0.95 ms
0 - 324608 grids are calculated on Device 0.
mem_info: unallocated=39770.69 MB, used=52.09 MB, free=204.91 MB, free_blocks=33
41917.450752 MB memory is available on Device 0, block_size None
    CPU time for eval integration on 0                                   0.02 sec, wall time      0.02 sec, GPU time     18.50 ms
    CPU time for nr_rks                                                  0.06 sec, wall time      0.06 sec, GPU time     58.58 ms
nelec by numeric integration = 31.999998933825896
    CPU time for vxc                                                     0.06 sec, wall time      0.06 sec, GPU time     58.73 ms
38.134 GB memory available on Device 0, block size = 256
    CPU time for vj and vk on Device 0                                   0.01 sec, wall time      0.01 sec, GPU time      6.48 ms
    CPU time for vj and vk                                               0.01 sec, wall time      0.01 sec, GPU time      9.59 ms
    CPU time for veff                                                    0.01 sec, wall time      0.01 sec, GPU time     10.91 ms
    CPU time for veff                                                    0.07 sec, wall time      0.07 sec, GPU time     71.81 ms
E1 = -508.5131919379921  Ecoul = 217.43737125441103  Exc = -26.851459267853024
    CPU time for cycle=5                                                 0.08 sec, wall time      0.08 sec, GPU time     79.89 ms
cycle= 5 E= -192.743292204568  delta_E= -0.00021  |g|= 0.00433  |ddm|= 0.0291
diis-c [-2.41761703e-06 -4.47832367e-03 -2.20275189e-03  4.90852179e-02
  1.89723775e-01  7.67872082e-01]
    CPU time for DIIS                                                    0.00 sec, wall time      0.00 sec, GPU time      3.02 ms
    CPU time for eig                                                     0.00 sec, wall time      0.00 sec, GPU time      3.25 ms
  HOMO = -0.280335263299666  LUMO = 0.0799493480702712  gap = 9.80384 eV
324608 grids on Device 0
0 - 324608 grids are calculated on Device 0.
mem_info: unallocated=39778.69 MB, used=43.75 MB, free=213.25 MB, free_blocks=34
41934.588416 MB memory is available on Device 0, block_size None
    CPU time for eval rho on Device 0                                    0.04 sec, wall time      0.04 sec, GPU time     36.56 ms
    CPU time for eval vxc on Device 0                                    0.00 sec, wall time      0.00 sec, GPU time      0.96 ms
0 - 324608 grids are calculated on Device 0.
mem_info: unallocated=39770.69 MB, used=52.15 MB, free=204.85 MB, free_blocks=33
41917.390336 MB memory is available on Device 0, block_size None
    CPU time for eval integration on 0                                   0.02 sec, wall time      0.02 sec, GPU time     18.63 ms
    CPU time for nr_rks                                                  0.06 sec, wall time      0.06 sec, GPU time     58.49 ms
nelec by numeric integration = 31.999998936347637
    CPU time for vxc                                                     0.06 sec, wall time      0.06 sec, GPU time     58.64 ms
38.134 GB memory available on Device 0, block size = 256
    CPU time for vj and vk on Device 0                                   0.00 sec, wall time      0.00 sec, GPU time      3.14 ms
    CPU time for vj and vk                                               0.01 sec, wall time      0.01 sec, GPU time      6.01 ms
    CPU time for veff                                                    0.01 sec, wall time      0.01 sec, GPU time      7.32 ms
    CPU time for veff                                                    0.07 sec, wall time      0.07 sec, GPU time     68.17 ms
E1 = -508.52153764811555  Ecoul = 217.44613390080485  Exc = -26.851880018483648
    CPU time for cycle=6                                                 0.08 sec, wall time      0.08 sec, GPU time     76.70 ms
cycle= 6 E= -192.743296018928  delta_E= -3.81e-06  |g|= 0.0015  |ddm|= 0.00517
diis-c [-1.95970982e-07 -2.98111141e-03 -1.77103869e-03  1.71238822e-02
  7.90393058e-02  3.86361477e-01  5.22227485e-01]
    CPU time for DIIS                                                    0.00 sec, wall time      0.00 sec, GPU time      3.24 ms
    CPU time for eig                                                     0.00 sec, wall time      0.00 sec, GPU time      3.24 ms
  HOMO = -0.280399907220347  LUMO = 0.0799505900139652  gap = 9.80564 eV
324608 grids on Device 0
0 - 324608 grids are calculated on Device 0.
mem_info: unallocated=39778.69 MB, used=43.81 MB, free=213.19 MB, free_blocks=38
41934.528 MB memory is available on Device 0, block_size None
    CPU time for eval rho on Device 0                                    0.04 sec, wall time      0.04 sec, GPU time     37.08 ms
    CPU time for eval vxc on Device 0                                    0.00 sec, wall time      0.00 sec, GPU time      0.94 ms
0 - 324608 grids are calculated on Device 0.
mem_info: unallocated=39770.69 MB, used=52.21 MB, free=204.79 MB, free_blocks=35
41917.32992 MB memory is available on Device 0, block_size None
    CPU time for eval integration on 0                                   0.02 sec, wall time      0.02 sec, GPU time     18.41 ms
    CPU time for nr_rks                                                  0.06 sec, wall time      0.06 sec, GPU time     58.75 ms
nelec by numeric integration = 31.999998935865637
    CPU time for vxc                                                     0.06 sec, wall time      0.06 sec, GPU time     58.90 ms
38.134 GB memory available on Device 0, block size = 256
    CPU time for vj and vk on Device 0                                   0.00 sec, wall time      0.00 sec, GPU time      3.15 ms
    CPU time for vj and vk                                               0.01 sec, wall time      0.01 sec, GPU time      5.95 ms
    CPU time for veff                                                    0.01 sec, wall time      0.01 sec, GPU time      7.26 ms
    CPU time for veff                                                    0.07 sec, wall time      0.07 sec, GPU time     68.38 ms
E1 = -508.5224277017187  Ecoul = 217.447147842811  Exc = -26.852004441804304
    CPU time for cycle=7                                                 0.08 sec, wall time      0.08 sec, GPU time     77.07 ms
cycle= 7 E= -192.743296553846  delta_E= -5.35e-07  |g|= 0.000213  |ddm|= 0.00157
diis-c [-1.10690377e-08 -4.81607832e-04 -3.38363106e-04  8.93040942e-04
  6.34212726e-03  4.27761599e-02  1.43409119e-01  8.07399524e-01]
    CPU time for DIIS                                                    0.00 sec, wall time      0.00 sec, GPU time      3.58 ms
    CPU time for eig                                                     0.00 sec, wall time      0.00 sec, GPU time      3.43 ms
  HOMO = -0.280410240583478  LUMO = 0.0799524222162862  gap = 9.80597 eV
324608 grids on Device 0
0 - 324608 grids are calculated on Device 0.
mem_info: unallocated=39778.69 MB, used=43.86 MB, free=213.14 MB, free_blocks=36
41934.467584 MB memory is available on Device 0, block_size None
    CPU time for eval rho on Device 0                                    0.04 sec, wall time      0.04 sec, GPU time     36.65 ms
    CPU time for eval vxc on Device 0                                    0.00 sec, wall time      0.00 sec, GPU time      0.93 ms
0 - 324608 grids are calculated on Device 0.
mem_info: unallocated=39770.69 MB, used=52.27 MB, free=204.74 MB, free_blocks=35
41917.269504 MB memory is available on Device 0, block_size None
    CPU time for eval integration on 0                                   0.02 sec, wall time      0.02 sec, GPU time     18.35 ms
    CPU time for nr_rks                                                  0.06 sec, wall time      0.06 sec, GPU time     58.25 ms
nelec by numeric integration = 31.99999893595969
    CPU time for vxc                                                     0.06 sec, wall time      0.06 sec, GPU time     58.41 ms
38.134 GB memory available on Device 0, block size = 256
    CPU time for vj and vk on Device 0                                   0.01 sec, wall time      0.01 sec, GPU time      6.48 ms
    CPU time for vj and vk                                               0.01 sec, wall time      0.01 sec, GPU time      9.55 ms
    CPU time for veff                                                    0.01 sec, wall time      0.01 sec, GPU time     10.90 ms
    CPU time for veff                                                    0.07 sec, wall time      0.07 sec, GPU time     71.46 ms
E1 = -508.5226446487493  Ecoul = 217.4473751698079  Exc = -26.852014833081427
    CPU time for cycle=8                                                 0.08 sec, wall time      0.08 sec, GPU time     80.69 ms
cycle= 8 E= -192.743296565157  delta_E= -1.13e-08  |g|= 5.45e-05  |ddm|= 0.000308
diis-c [-5.85946351e-10  8.18690001e-07 -2.05932471e-05 -5.66681223e-04
 -2.10142217e-03 -6.94594533e-03  1.70680188e-02  2.55194975e-01
  7.37370830e-01]
    CPU time for DIIS                                                    0.00 sec, wall time      0.00 sec, GPU time      3.90 ms
    CPU time for eig                                                     0.00 sec, wall time      0.00 sec, GPU time      3.24 ms
  HOMO = -0.28040555709707  LUMO = 0.0799540133672611  gap = 9.80588 eV
324608 grids on Device 0
0 - 324608 grids are calculated on Device 0.
mem_info: unallocated=39778.69 MB, used=43.92 MB, free=213.08 MB, free_blocks=35
41934.407168 MB memory is available on Device 0, block_size None
    CPU time for eval rho on Device 0                                    0.05 sec, wall time      0.05 sec, GPU time     50.37 ms
    CPU time for eval vxc on Device 0                                    0.00 sec, wall time      0.00 sec, GPU time      1.13 ms
0 - 324608 grids are calculated on Device 0.
mem_info: unallocated=39770.69 MB, used=52.32 MB, free=204.68 MB, free_blocks=34
41917.209088 MB memory is available on Device 0, block_size None
    CPU time for eval integration on 0                                   0.02 sec, wall time      0.02 sec, GPU time     18.56 ms
    CPU time for nr_rks                                                  0.07 sec, wall time      0.07 sec, GPU time     72.37 ms
nelec by numeric integration = 31.9999989359676
    CPU time for vxc                                                     0.07 sec, wall time      0.07 sec, GPU time     72.53 ms
38.134 GB memory available on Device 0, block size = 256
    CPU time for vj and vk on Device 0                                   0.01 sec, wall time      0.01 sec, GPU time      6.50 ms
    CPU time for vj and vk                                               0.01 sec, wall time      0.01 sec, GPU time      9.51 ms
    CPU time for veff                                                    0.01 sec, wall time      0.01 sec, GPU time     10.83 ms
    CPU time for veff                                                    0.09 sec, wall time      0.09 sec, GPU time     85.55 ms
E1 = -508.5224234694372  Ecoul = 217.44713900768488  Exc = -26.851999850991575
    CPU time for cycle=9                                                 0.10 sec, wall time      0.09 sec, GPU time     94.94 ms
cycle= 9 E= -192.743296565878  delta_E= -7.21e-10  |g|= 1.68e-05  |ddm|= 8.59e-05
diis-c [-4.39169247e-11  6.36120391e-01 -5.97849612e-06 -2.07847839e-04
 -8.36728961e-04 -3.48120865e-03  2.18392861e-03  6.83960252e-02
  2.97831419e-01]
    CPU time for DIIS                                                    0.00 sec, wall time      0.00 sec, GPU time      4.05 ms
    CPU time for eig                                                     0.00 sec, wall time      0.00 sec, GPU time      3.29 ms
  HOMO = -0.280408313968226  LUMO = 0.0799536430511374  gap = 9.80595 eV
324608 grids on Device 0
0 - 324608 grids are calculated on Device 0.
mem_info: unallocated=39778.69 MB, used=43.92 MB, free=213.08 MB, free_blocks=37
41934.407168 MB memory is available on Device 0, block_size None
    CPU time for eval rho on Device 0                                    0.04 sec, wall time      0.04 sec, GPU time     36.38 ms
    CPU time for eval vxc on Device 0                                    0.00 sec, wall time      0.00 sec, GPU time      0.98 ms
0 - 324608 grids are calculated on Device 0.
mem_info: unallocated=39770.69 MB, used=52.32 MB, free=204.68 MB, free_blocks=35
41917.209088 MB memory is available on Device 0, block_size None
    CPU time for eval integration on 0                                   0.02 sec, wall time      0.02 sec, GPU time     18.45 ms
    CPU time for nr_rks                                                  0.06 sec, wall time      0.06 sec, GPU time     58.17 ms
nelec by numeric integration = 31.999998935964125
    CPU time for vxc                                                     0.06 sec, wall time      0.06 sec, GPU time     58.33 ms
38.134 GB memory available on Device 0, block size = 256
    CPU time for vj and vk on Device 0                                   0.01 sec, wall time      0.01 sec, GPU time      6.74 ms
    CPU time for vj and vk                                               0.01 sec, wall time      0.01 sec, GPU time      9.84 ms
    CPU time for veff                                                    0.01 sec, wall time      0.01 sec, GPU time     11.15 ms
    CPU time for veff                                                    0.07 sec, wall time      0.07 sec, GPU time     71.64 ms
E1 = -508.5225158192218  Ecoul = 217.44723749383036  Exc = -26.852005987419954
    CPU time for cycle=10                                                0.08 sec, wall time      0.08 sec, GPU time     81.20 ms
cycle= 10 E= -192.743296565945  delta_E= -6.75e-11  |g|= 3.6e-06  |ddm|= 2.23e-05
    CPU time for SCF                                                     7.54 sec, wall time      1.25 sec, GPU time   1246.91 ms
converged SCF energy = -192.743296565945


******** <class 'gpu4pyscf.df.grad.rks.Gradients'> for <class 'gpu4pyscf.df.df_jk.DFRKS'> ********
unit = Eh/Bohr
max_memory 4000 MB (current use 1117 MB)
Number of shells for each [l, nctr] group
    [0 1] : 14
    [0 3] : 6
    [0 5] : 4
    [1 1] : 10
    [1 3] : 4
    [2 1] : 4
    CPU time for Initialize q_cond                                       0.45 sec, wall time      0.02 sec, GPU time     15.97 ms
    CPU time for Get AO pairing                                          0.08 sec, wall time      0.00 sec, GPU time      1.53 ms
    CPU time for AO indices                                              0.00 sec, wall time      0.00 sec, GPU time      0.33 ms
    CPU time for Initialize GPU cache                                    0.00 sec, wall time      0.00 sec, GPU time      0.72 ms
    CPU time for gradients of h1e                                        2.00 sec, wall time      0.08 sec, GPU time     79.09 ms
324608 grids on Device 0
0 - 324608 grids are calculated on Device 0.
mem_info: unallocated=39778.69 MB, used=23.91 MB, free=233.10 MB, free_blocks=34
41955.395072 MB memory is available on Device 0, block_size None
    CPU time for gradient of vxc                                         0.20 sec, wall time      0.17 sec, GPU time    174.52 ms
    CPU time for grad vxc                                                0.20 sec, wall time      0.18 sec, GPU time    175.73 ms
    CPU time for vxc total                                               0.22 sec, wall time      0.18 sec, GPU time    175.97 ms
Number of shells for each [l, nprim] group
    [0 5] : 4
    [0 3] : 6
    [0 1] : 14
    [1 3] : 4
    [1 1] : 10
    [2 1] : 4
Number of shells for each [l, nprim] group
    [0 5] : 4
    [0 3] : 6
    [0 1] : 42
    [1 3] : 4
    [1 1] : 40
    [2 3] : 1
    [2 2] : 3
    [2 1] : 27
    [3 2] : 3
    [3 1] : 2
    [4 1] : 4
dm_factor shape (90, 16)
sp_batches = 1, ksh_batches = 11
41.711 GB free memory. nao_pair=4195 naux=480 batch_size=480 blksize=480
    CPU time for contract dm                                             0.04 sec, wall time      0.04 sec, GPU time     35.24 ms
int2c2e_kernel, nimgs = 1
    CPU time for contract int3c2e_ejk_ip1                                0.04 sec, wall time      0.04 sec, GPU time     50.08 ms
int2c2e_kernel, nimgs = 1
    CPU time for contract int2c2e_ip1                                    0.04 sec, wall time      0.04 sec, GPU time     21.38 ms
    CPU time for gradients of veff                                       0.37 sec, wall time      0.32 sec, GPU time    320.64 ms
Computing Gradients of NR-HF Coulomb repulsion
    CPU time for gradients of 2e part                                    0.37 sec, wall time      0.32 sec, GPU time    320.75 ms
    CPU time for gradients of electronic part                            2.37 sec, wall time      0.40 sec, GPU time    400.63 ms
    CPU time for SCF gradients                                           2.37 sec, wall time      0.40 sec, GPU time    401.09 ms
--------------- DFRKS gradients ---------------
         x                y                z
0 O    -0.0000148306     0.0000112390     0.0000069832
1 C    -0.0000042094     0.0000245312    -0.0000014772
2 C     0.0000070422    -0.0000463126    -0.0000077819
3 C    -0.0000015821    -0.0000168935     0.0000062763
4 H     0.0000083767    -0.0000037241    -0.0000013192
5 H    -0.0000005928     0.0000082048     0.0000022775
6 H     0.0000014940     0.0000059895     0.0000028030
7 H     0.0000002511     0.0000029692    -0.0000025942
8 H     0.0000013841     0.0000036122    -0.0000029908
9 H     0.0000028666     0.0000083057     0.0000002043
----------------------------------------------


******** <class 'gpu4pyscf.df.hessian.rks.Hessian'> for <class 'gpu4pyscf.df.df_jk.DFRKS'> ********
Max_memory 4000 MB (current use 1117 MB)
Partial Hessian with density fitting approximation
Memory available 35.52860269509256 GB
Psi4 predefined JKFIT basis set def2-svp-jkfit for HF
Default auxbasis def2-svp-jkfit is applied universally
num shells = 136, num cGTOs = 410
    CPU time for intermediate variables with int2c2e and int2c2e_ip1      0.89 sec, wall time      0.05 sec, GPU time     46.25 ms
Number of shells for each [l, nctr] group
    [0 1] : 14
    [0 3] : 6
    [0 5] : 4
    [1 1] : 10
    [1 3] : 4
    [2 1] : 4
Number of shells for each [l, nctr] group
    [0 1] : 42
    [0 3] : 6
    [0 5] : 4
    [1 1] : 40
    [1 3] : 4
    [2 1] : 27
    [2 2] : 3
    [2 3] : 1
    [3 1] : 2
    [3 2] : 3
    [4 1] : 4
    CPU time for Initialize q_cond                                       0.47 sec, wall time      0.02 sec, GPU time     19.61 ms
    CPU time for Get AO pairing                                          0.00 sec, wall time      0.00 sec, GPU time      0.58 ms
    CPU time for AO indices                                              0.00 sec, wall time      0.00 sec, GPU time      0.20 ms
    CPU time for Aux AO indices                                          0.00 sec, wall time      0.00 sec, GPU time      0.37 ms
    CPU time for Get AO pairs                                            0.00 sec, wall time      0.00 sec, GPU time      0.87 ms
    CPU time for Initialize GPU cache on Device 0                        0.00 sec, wall time      0.00 sec, GPU time      0.30 ms
    CPU time for int3c2e_vjk on Device 0                                 0.38 sec, wall time      0.21 sec, GPU time    207.49 ms
    CPU time for intermediate variables with int3c2e                     1.92 sec, wall time      0.27 sec, GPU time    272.78 ms
    CPU time for Initialize GPU cache on Device 0                        0.00 sec, wall time      0.00 sec, GPU time      1.36 ms
    CPU time for int3c2e_ipip on Device 0                                1.51 sec, wall time      1.51 sec, GPU time   1514.36 ms
    CPU time for intermediate variables with int3c2e_ipip                1.52 sec, wall time      1.52 sec, GPU time   1516.41 ms
    CPU time for int3c2e_ip2_wjk on Device 0                             0.35 sec, wall time      0.35 sec, GPU time    352.38 ms
    CPU time for intermediate variables with int3c2e_ip2                 0.36 sec, wall time      0.35 sec, GPU time    354.85 ms
    CPU time for int3c2e_ip1_wjk on Device 0                             0.26 sec, wall time      0.26 sec, GPU time    263.11 ms
    CPU time for intermediate variables with int3c2e_ip1                 0.32 sec, wall time      0.32 sec, GPU time    319.69 ms
GPU Memory 35.5 GB available, 16148 aux AOs per block
    CPU time for contract int3c2e_ip1 with int2c_ip1                     0.07 sec, wall time      0.07 sec, GPU time     68.78 ms
    CPU time for contract int3c2e_ip1 with int3c2e_ip1                   0.02 sec, wall time      0.02 sec, GPU time     16.14 ms
    CPU time for intermediate variables with int2c_*                     2.07 sec, wall time      0.08 sec, GPU time     81.95 ms
    CPU time for contract int2c_*                                        0.01 sec, wall time      0.01 sec, GPU time     10.58 ms
Number of shells for each [l, nctr] group
    [0 1] : 14
    [0 3] : 6
    [0 5] : 4
    [1 1] : 10
    [1 3] : 4
    [2 1] : 4
    CPU time for Initialize q_cond                                       0.28 sec, wall time      0.01 sec, GPU time     14.92 ms
    CPU time for Get AO pairing                                          0.09 sec, wall time      0.00 sec, GPU time      0.96 ms
    CPU time for AO indices                                              0.00 sec, wall time      0.00 sec, GPU time      0.24 ms
    CPU time for Initialize GPU cache                                    0.00 sec, wall time      0.00 sec, GPU time      0.82 ms
    CPU time for hess_nuc_elec                                           0.82 sec, wall time      0.19 sec, GPU time    192.61 ms
    CPU time for get_hcore                                               2.22 sec, wall time      0.08 sec, GPU time     80.65 ms
    CPU time for hcore generate                                          3.04 sec, wall time      0.28 sec, GPU time    275.87 ms
    CPU time for hcore contribution                                      1.65 sec, wall time      0.14 sec, GPU time    136.27 ms
    CPU time for RHF partial hessian                                    11.86 sec, wall time      3.10 sec, GPU time   3101.54 ms
    CPU time for computing ej, ek                                       11.86 sec, wall time      3.10 sec, GPU time   3102.69 ms
0 - 324608 grids are calculated on Device 0.
mem_info: unallocated=37252.69 MB, used=21.32 MB, free=100.07 MB, free_blocks=26
39167.208448 MB memory is available on Device 0, block_size None
0 - 324608 grids are calculated on Device 0.
mem_info: unallocated=37138.69 MB, used=73.72 MB, free=148.11 MB, free_blocks=28
39098.044416 MB memory is available on Device 0, block_size None
    CPU time for vxc_deriv2 on Device 0                                  2.15 sec, wall time      2.15 sec, GPU time   2150.43 ms
    CPU time for RKS partial hessian                                    14.37 sec, wall time      5.61 sec, GPU time   5608.80 ms
    CPU time for hess elec                                              14.37 sec, wall time      5.61 sec, GPU time   5608.89 ms
Generate JK for RHF partial hessian
GPU memory 35.5 GB available
Psi4 predefined JKFIT basis set def2-svp-jkfit for HF
Default auxbasis def2-svp-jkfit is applied universally
num shells = 136, num cGTOs = 410
GPU Memory 35.5 GB available, 42976 aux AOs per block
Number of shells for each [l, nctr] group
    [0 1] : 14
    [0 3] : 6
    [0 5] : 4
    [1 1] : 10
    [1 3] : 4
    [2 1] : 4
Number of shells for each [l, nctr] group
    [0 1] : 42
    [0 3] : 6
    [0 5] : 4
    [1 1] : 40
    [1 3] : 4
    [2 1] : 27
    [2 2] : 3
    [2 3] : 1
    [3 1] : 2
    [3 2] : 3
    [4 1] : 4
    CPU time for Initialize q_cond                                       0.41 sec, wall time      0.02 sec, GPU time     16.83 ms
    CPU time for Get AO pairing                                          0.00 sec, wall time      0.00 sec, GPU time      1.18 ms
    CPU time for AO indices                                              0.00 sec, wall time      0.00 sec, GPU time      0.23 ms
    CPU time for Aux AO indices                                          0.00 sec, wall time      0.00 sec, GPU time      0.35 ms
    CPU time for Get AO pairs                                            0.00 sec, wall time      0.00 sec, GPU time      0.92 ms
    CPU time for Initialize GPU cache on Device 0                        0.00 sec, wall time      0.00 sec, GPU time      0.41 ms
    CPU time for Fock matrix due to int3c2e                              2.43 sec, wall time      0.31 sec, GPU time    314.73 ms
    CPU time for Initialize GPU cache on Device 0                        0.00 sec, wall time      0.00 sec, GPU time      0.82 ms
    CPU time for int3c2e_ip2_vjk on Device 0                             0.28 sec, wall time      0.28 sec, GPU time    283.08 ms
    CPU time for Fock matrix due to int3c2e_ip2                          0.29 sec, wall time      0.29 sec, GPU time    285.94 ms
GPU Memory 35.5 GB available, 48416 AOs per block
    CPU time for Fock matrix due to int2c2e_ip1                          0.62 sec, wall time      0.02 sec, GPU time     23.72 ms
    CPU time for int3c2e_ip1_vjk on Device 0                             0.61 sec, wall time      0.56 sec, GPU time    561.97 ms
    CPU time for Fock matrix due to int3c2e_ip1                          0.68 sec, wall time      0.57 sec, GPU time    566.52 ms
Number of shells for each [l, nctr] group
    [0 1] : 14
    [0 3] : 6
    [0 5] : 4
    [1 1] : 10
    [1 3] : 4
    [2 1] : 4
    CPU time for Initialize q_cond                                       0.47 sec, wall time      0.02 sec, GPU time     21.42 ms
    CPU time for Get AO pairing                                          0.00 sec, wall time      0.00 sec, GPU time      0.90 ms
    CPU time for AO indices                                              0.00 sec, wall time      0.00 sec, GPU time      0.21 ms
    CPU time for Aux AO indices                                          0.00 sec, wall time      0.00 sec, GPU time      0.15 ms
    CPU time for Get AO pairs                                            0.10 sec, wall time      0.00 sec, GPU time      1.36 ms
    CPU time for Initialize GPU cache on Device 0                        0.00 sec, wall time      0.00 sec, GPU time      0.94 ms
0 - 324608 grids are calculated on Device 0.
mem_info: unallocated=39602.69 MB, used=68.70 MB, free=13.57 MB, free_blocks=15
41540.657664 MB memory is available on Device 0, block_size None
    CPU time for vxc_deriv1 on Device 0                                  1.77 sec, wall time      1.77 sec, GPU time   1773.23 ms
    CPU time for making H1                                               8.41 sec, wall time      3.14 sec, GPU time   3136.13 ms
GPU memory 35.5 GB available
21488 atoms in each block CPHF equation
Solving CPHF equation for atoms [0:10]
Secondary grids defined for CPHF in Hessian
atom O rad-grids = 50, ang-grids = [  6   6   6   6   6   6   6   6   6   6   6   6   6   6  38  38  38  38
  38  38  86  86  86  86 194 194 194 194 194 194 194 194 194 194 194 194
 194  86  86  86  86  86  86  86  86  86  86  86  86  86]
atom C rad-grids = 50, ang-grids = [  6   6   6   6   6   6   6   6   6   6   6   6   6   6   6  38  38  38
  38  38  38  86  86  86  86 194 194 194 194 194 194 194 194 194 194 194
 194 194  86  86  86  86  86  86  86  86  86  86  86  86]
atom H rad-grids = 50, ang-grids = [  6   6   6   6   6   6   6   6   6   6   6   6   6   6   6   6   6  38
  38  38  38  38  86  86  86  86  86 194 194 194 194 194 194 194 194 194
 194 194 194 194 194 194  86  86  86  86  86  86  86  86]
    CPU time for generating atomic grids                                 0.00 sec, wall time      0.00 sec, GPU time      3.73 ms
Padding 144 grids
    CPU time for sorting grids                                           0.00 sec, wall time      0.00 sec, GPU time      1.08 ms
tot grids = 43008
0 - 43008 grids are calculated on Device 0.
mem_info: unallocated=39666.69 MB, used=20.31 MB, free=11.28 MB, free_blocks=13
41605.363712 MB memory is available on Device 0, block_size None
    CPU time for eval rho in fxc                                         0.02 sec, wall time      0.02 sec, GPU time     20.09 ms
    CPU time for eval fxc                                                0.00 sec, wall time      0.00 sec, GPU time      1.76 ms
43008 grids on Device 0
0 - 43008 grids are calculated on Device 0.
mem_info: unallocated=39644.69 MB, used=35.14 MB, free=15.40 MB, free_blocks=17
41586.617856 MB memory is available on Device 0, block_size None
    CPU time for vxc on Device 0                                         0.15 sec, wall time      0.15 sec, GPU time    145.24 ms
    CPU time for nr_rks_fxc                                              0.15 sec, wall time      0.15 sec, GPU time    147.78 ms
Build CDERI ...
    CPU time for 2c2e                                                    0.44 sec, wall time      0.02 sec, GPU time     17.30 ms
Number of shells for each [l, nctr] group
    [0 1] : 14
    [0 3] : 6
    [0 5] : 4
    [1 1] : 10
    [1 3] : 4
    [2 1] : 4
Number of shells for each [l, nctr] group
    [0 1] : 42
    [0 3] : 6
    [0 5] : 4
    [1 1] : 40
    [1 3] : 4
    [2 1] : 27
    [2 2] : 3
    [2 3] : 1
    [3 1] : 2
    [3 2] : 3
    [4 1] : 4
    CPU time for Initialize q_cond                                       0.46 sec, wall time      0.02 sec, GPU time     16.61 ms
    CPU time for Get AO pairing                                          0.00 sec, wall time      0.00 sec, GPU time      0.66 ms
    CPU time for AO indices                                              0.00 sec, wall time      0.00 sec, GPU time      0.22 ms
    CPU time for Aux AO indices                                          0.00 sec, wall time      0.00 sec, GPU time      0.39 ms
    CPU time for Get AO pairs                                            0.10 sec, wall time      0.00 sec, GPU time      0.90 ms
    CPU time for prepare intopt                                          0.67 sec, wall time      0.02 sec, GPU time     23.75 ms
size of aux basis 410
Saving CDERI on GPU
CDERI size 0.011 GB on Device 0
    CPU time for Initialize GPU cache on Device 0                        0.00 sec, wall time      0.00 sec, GPU time      0.69 ms
    CPU time for solve 5 / 21 on Device 0                                0.12 sec, wall time      0.01 sec, GPU time      5.50 ms
    CPU time for transfer data for 5 / 21 on Device 0                    0.00 sec, wall time      0.00 sec, GPU time      0.12 ms
    CPU time for solve 2 / 21 on Device 0                                0.07 sec, wall time      0.00 sec, GPU time      2.55 ms
    CPU time for transfer data for 2 / 21 on Device 0                    0.00 sec, wall time      0.00 sec, GPU time      0.08 ms
    CPU time for solve 4 / 21 on Device 0                                0.01 sec, wall time      0.00 sec, GPU time      2.44 ms
    CPU time for transfer data for 4 / 21 on Device 0                    0.00 sec, wall time      0.00 sec, GPU time      0.08 ms
    CPU time for solve 12 / 21 on Device 0                               0.00 sec, wall time      0.00 sec, GPU time      2.72 ms
    CPU time for transfer data for 12 / 21 on Device 0                   0.00 sec, wall time      0.00 sec, GPU time      0.08 ms
    CPU time for solve 3 / 21 on Device 0                                0.00 sec, wall time      0.00 sec, GPU time      2.18 ms
    CPU time for transfer data for 3 / 21 on Device 0                    0.00 sec, wall time      0.00 sec, GPU time      0.08 ms
    CPU time for solve 11 / 21 on Device 0                               0.00 sec, wall time      0.00 sec, GPU time      2.40 ms
    CPU time for transfer data for 11 / 21 on Device 0                   0.00 sec, wall time      0.00 sec, GPU time      0.08 ms
    CPU time for solve 14 / 21 on Device 0                               0.00 sec, wall time      0.00 sec, GPU time      2.75 ms
    CPU time for transfer data for 14 / 21 on Device 0                   0.00 sec, wall time      0.00 sec, GPU time      0.08 ms
    CPU time for solve 17 / 21 on Device 0                               0.00 sec, wall time      0.00 sec, GPU time      2.37 ms
    CPU time for transfer data for 17 / 21 on Device 0                   0.00 sec, wall time      0.00 sec, GPU time      0.08 ms
    CPU time for solve 1 / 21 on Device 0                                0.00 sec, wall time      0.00 sec, GPU time      2.13 ms
    CPU time for transfer data for 1 / 21 on Device 0                    0.00 sec, wall time      0.00 sec, GPU time      0.08 ms
    CPU time for solve 0 / 21 on Device 0                                0.00 sec, wall time      0.00 sec, GPU time      2.09 ms
    CPU time for transfer data for 0 / 21 on Device 0                    0.00 sec, wall time      0.00 sec, GPU time      0.08 ms
    CPU time for solve 16 / 21 on Device 0                               0.00 sec, wall time      0.00 sec, GPU time      2.22 ms
    CPU time for transfer data for 16 / 21 on Device 0                   0.00 sec, wall time      0.00 sec, GPU time      0.08 ms
    CPU time for solve 8 / 21 on Device 0                                0.00 sec, wall time      0.00 sec, GPU time      2.28 ms
    CPU time for transfer data for 8 / 21 on Device 0                    0.00 sec, wall time      0.00 sec, GPU time      0.08 ms
    CPU time for solve 10 / 21 on Device 0                               0.00 sec, wall time      0.00 sec, GPU time      2.15 ms
    CPU time for transfer data for 10 / 21 on Device 0                   0.00 sec, wall time      0.00 sec, GPU time      0.08 ms
    CPU time for solve 7 / 21 on Device 0                                0.00 sec, wall time      0.00 sec, GPU time      2.16 ms
    CPU time for transfer data for 7 / 21 on Device 0                    0.00 sec, wall time      0.00 sec, GPU time      0.07 ms
    CPU time for solve 20 / 21 on Device 0                               0.00 sec, wall time      0.00 sec, GPU time      2.41 ms
    CPU time for transfer data for 20 / 21 on Device 0                   0.00 sec, wall time      0.00 sec, GPU time      0.07 ms
    CPU time for solve 19 / 21 on Device 0                               0.00 sec, wall time      0.00 sec, GPU time      2.31 ms
    CPU time for transfer data for 19 / 21 on Device 0                   0.00 sec, wall time      0.00 sec, GPU time      0.08 ms
    CPU time for solve 15 / 21 on Device 0                               0.00 sec, wall time      0.00 sec, GPU time      2.22 ms
    CPU time for transfer data for 15 / 21 on Device 0                   0.00 sec, wall time      0.00 sec, GPU time      0.07 ms
    CPU time for solve 13 / 21 on Device 0                               0.00 sec, wall time      0.00 sec, GPU time      2.19 ms
    CPU time for transfer data for 13 / 21 on Device 0                   0.00 sec, wall time      0.00 sec, GPU time      0.08 ms
    CPU time for solve 6 / 21 on Device 0                                0.00 sec, wall time      0.00 sec, GPU time      2.14 ms
    CPU time for transfer data for 6 / 21 on Device 0                    0.00 sec, wall time      0.00 sec, GPU time      0.09 ms
    CPU time for solve 9 / 21 on Device 0                                0.00 sec, wall time      0.00 sec, GPU time      2.17 ms
    CPU time for transfer data for 9 / 21 on Device 0                    0.00 sec, wall time      0.00 sec, GPU time      0.07 ms
    CPU time for solve 18 / 21 on Device 0                               0.00 sec, wall time      0.00 sec, GPU time      2.52 ms
    CPU time for transfer data for 18 / 21 on Device 0                   0.00 sec, wall time      0.00 sec, GPU time      0.08 ms
    CPU time for cholesky_eri                                            1.03 sec, wall time      0.08 sec, GPU time     82.00 ms
    CPU time for init jk                                                 1.47 sec, wall time      0.10 sec, GPU time     99.45 ms
38.117 GB memory available on Device 0, block size = 256
    CPU time for vj and vk on Device 0                                   0.05 sec, wall time      0.05 sec, GPU time     50.45 ms
    CPU time for vj and vk                                               0.05 sec, wall time      0.05 sec, GPU time     52.58 ms
krylov cycle 0, r = 2.105e-01, 27 equations
Secondary grids defined for CPHF in Hessian
0 - 43008 grids are calculated on Device 0.
mem_info: unallocated=39556.69 MB, used=32.83 MB, free=99.17 MB, free_blocks=28
41582.177792 MB memory is available on Device 0, block_size None
    CPU time for eval rho in fxc                                         0.02 sec, wall time      0.02 sec, GPU time     19.99 ms
    CPU time for eval fxc                                                0.00 sec, wall time      0.00 sec, GPU time      2.27 ms
43008 grids on Device 0
0 - 43008 grids are calculated on Device 0.
mem_info: unallocated=39556.69 MB, used=45.94 MB, free=86.06 MB, free_blocks=28
41568.43776 MB memory is available on Device 0, block_size None
    CPU time for vxc on Device 0                                         0.09 sec, wall time      0.09 sec, GPU time     86.44 ms
    CPU time for nr_rks_fxc                                              0.09 sec, wall time      0.09 sec, GPU time     89.23 ms
38.119 GB memory available on Device 0, block size = 256
    CPU time for vj and vk on Device 0                                   0.04 sec, wall time      0.04 sec, GPU time     36.52 ms
    CPU time for vj and vk                                               0.04 sec, wall time      0.04 sec, GPU time     39.11 ms
krylov cycle 1, r = 3.873e-02, 16 equations
Secondary grids defined for CPHF in Hessian
0 - 43008 grids are calculated on Device 0.
mem_info: unallocated=39556.69 MB, used=32.31 MB, free=99.69 MB, free_blocks=31
41582.723072 MB memory is available on Device 0, block_size None
    CPU time for eval rho in fxc                                         0.02 sec, wall time      0.02 sec, GPU time     22.35 ms
    CPU time for eval fxc                                                0.00 sec, wall time      0.00 sec, GPU time      2.69 ms
43008 grids on Device 0
0 - 43008 grids are calculated on Device 0.
mem_info: unallocated=39556.69 MB, used=44.06 MB, free=87.94 MB, free_blocks=31
41570.405376 MB memory is available on Device 0, block_size None
    CPU time for vxc on Device 0                                         0.03 sec, wall time      0.03 sec, GPU time     29.41 ms
    CPU time for nr_rks_fxc                                              0.03 sec, wall time      0.03 sec, GPU time     32.71 ms
38.121 GB memory available on Device 0, block size = 256
    CPU time for vj and vk on Device 0                                   0.02 sec, wall time      0.02 sec, GPU time     15.25 ms
    CPU time for vj and vk                                               0.02 sec, wall time      0.02 sec, GPU time     17.78 ms
krylov cycle 2, r = 5.018e-03, 5 equations
krylov space size 51
Secondary grids defined for CPHF in Hessian
0 - 43008 grids are calculated on Device 0.
mem_info: unallocated=39556.69 MB, used=33.26 MB, free=98.74 MB, free_blocks=30
41581.72672 MB memory is available on Device 0, block_size None
    CPU time for eval rho in fxc                                         0.02 sec, wall time      0.02 sec, GPU time     20.54 ms
    CPU time for eval fxc                                                0.00 sec, wall time      0.00 sec, GPU time      2.18 ms
43008 grids on Device 0
0 - 43008 grids are calculated on Device 0.
mem_info: unallocated=39556.69 MB, used=48.09 MB, free=83.91 MB, free_blocks=31
41566.175744 MB memory is available on Device 0, block_size None
    CPU time for vxc on Device 0                                         0.14 sec, wall time      0.14 sec, GPU time    143.18 ms
    CPU time for nr_rks_fxc                                              0.15 sec, wall time      0.15 sec, GPU time    145.98 ms
38.117 GB memory available on Device 0, block size = 256
    CPU time for vj and vk on Device 0                                   0.04 sec, wall time      0.04 sec, GPU time     38.31 ms
    CPU time for vj and vk                                               0.04 sec, wall time      0.04 sec, GPU time     40.34 ms
    CPU time for CPHF solver                                             3.12 sec, wall time      0.95 sec, GPU time    948.09 ms
    CPU time for solving MO1                                             3.12 sec, wall time      0.95 sec, GPU time    948.96 ms
    CPU time for RHF hessian                                            26.70 sec, wall time      9.74 sec, GPU time   9735.75 ms
    CPU time for SCF hessian     26.70 sec, wall time      9.74 sec
Mode                                 0                   1                   2
Irrep
Freq [cm^-1]                      212.7525            369.7117            417.3745
Reduced mass [au]                   1.0987              2.2814              2.3624
Force const [Dyne/A]                0.0293              0.1837              0.2425
Char temp [K]                     306.1035            531.9328            600.5090
Normal mode                   x     y     z       x     y     z       x     y     z
       0   O                -0.02  0.01  0.04   -0.09 -0.02 -0.06   -0.10 -0.00 -0.04
       1   C                 0.00 -0.05 -0.01   -0.00 -0.11 -0.03    0.02 -0.03  0.13
       2   C                 0.03  0.02 -0.03    0.11  0.01  0.06   -0.05 -0.00 -0.02
       3   C                -0.00  0.01 -0.00   -0.02  0.08  0.02    0.12  0.02 -0.03
       4   H                -0.01 -0.09 -0.01    0.00 -0.09 -0.03    0.06  0.01  0.13
       5   H                 0.04  0.02 -0.05    0.11  0.17  0.18    0.10  0.07 -0.16
       6   H                 0.04  0.07 -0.05    0.28 -0.09  0.08   -0.24 -0.05  0.01
       7   H                -0.24  0.32  0.40   -0.16  0.14 -0.09   -0.02  0.06 -0.22
       8   H                 0.28  0.28 -0.38    0.15  0.13  0.21    0.15  0.07 -0.14
       9   H                -0.06 -0.51 -0.01   -0.07  0.27  0.02    0.39  0.06  0.01
Mode                                 3                   4                   5
Irrep
Freq [cm^-1]                      817.4270            891.2133            908.2096
Reduced mass [au]                   2.4908              2.4244              1.2615
Force const [Dyne/A]                0.9806              1.1345              0.6130
Char temp [K]                    1176.0955           1282.2576           1306.7114
Normal mode                   x     y     z       x     y     z       x     y     z
       0   O                 0.08 -0.05 -0.02    0.09  0.07 -0.06   -0.02 -0.06 -0.01
       1   C                -0.03 -0.03  0.09   -0.03 -0.11  0.00   -0.02  0.04  0.03
       2   C                 0.07  0.08 -0.00   -0.09  0.07  0.02    0.02  0.01 -0.06
       3   C                -0.13 -0.01 -0.02    0.01 -0.05  0.03   -0.03  0.05  0.05
       4   H                 0.02  0.17  0.09    0.10 -0.19  0.00    0.20 -0.17  0.04
       5   H                 0.26  0.09 -0.23   -0.36 -0.11  0.25   -0.20  0.00  0.23
       6   H                -0.16  0.02  0.03    0.03 -0.02  0.05    0.47  0.10 -0.12
       7   H                -0.27  0.02 -0.21   -0.19  0.05 -0.13    0.10 -0.09 -0.10
       8   H                -0.13  0.03 -0.14    0.16  0.05  0.01   -0.31 -0.02 -0.30
       9   H                 0.06  0.02 -0.00    0.15  0.04  0.05    0.35 -0.13  0.10
Mode                                 6                   7                   8
Irrep
Freq [cm^-1]                     1014.2831           1042.9231           1133.0678
Reduced mass [au]                   2.4799              1.2600              1.4223
Force const [Dyne/A]                1.5031              0.8074              1.0758
Char temp [K]                    1459.3275           1500.5341           1630.2323
Normal mode                   x     y     z       x     y     z       x     y     z
       0   O                -0.02  0.09  0.03    0.01  0.06 -0.00   -0.04  0.04 -0.02
       1   C                 0.09  0.06 -0.02    0.05 -0.03  0.01    0.01 -0.08 -0.03
       2   C                 0.01 -0.14  0.01   -0.01 -0.04  0.02    0.08  0.01  0.06
       3   C                -0.08 -0.06  0.02   -0.05  0.06 -0.03   -0.01  0.07  0.02
       4   H                 0.22  0.05 -0.02    0.11 -0.56  0.01    0.05  0.18 -0.03
       5   H                 0.04 -0.12 -0.03    0.14  0.21 -0.00   -0.14 -0.59 -0.07
       6   H                 0.05  0.02 -0.05   -0.23 -0.38  0.17   -0.31  0.21  0.01
       7   H                -0.36  0.06 -0.26    0.16 -0.07  0.04    0.18 -0.08  0.00
       8   H                 0.09  0.09 -0.12   -0.30 -0.06 -0.14   -0.23 -0.03 -0.11
       9   H                 0.17  0.11  0.04   -0.07 -0.12 -0.03    0.07 -0.13  0.03
Mode                                 9                  10                  11
Irrep
Freq [cm^-1]                     1157.7530           1168.0604           1188.0078
Reduced mass [au]                   1.4504              1.7436              1.7536
Force const [Dyne/A]                1.1455              1.4016              1.4582
Char temp [K]                    1665.7487           1680.5789           1709.2787
Normal mode                   x     y     z       x     y     z       x     y     z
       0   O                -0.03 -0.03  0.06   -0.03 -0.02 -0.03    0.01  0.07  0.01
       1   C                 0.03  0.03 -0.02    0.07  0.05  0.13    0.03 -0.11  0.08
       2   C                 0.07  0.06 -0.10    0.02  0.02 -0.00   -0.04 -0.06 -0.06
       3   C                -0.01 -0.02  0.01   -0.01 -0.02 -0.10   -0.01  0.04 -0.04
       4   H                 0.07  0.20 -0.02    0.18 -0.23  0.14   -0.04  0.54  0.08
       5   H                -0.32 -0.07  0.29   -0.23 -0.27  0.13   -0.06  0.12  0.08
       6   H                -0.28 -0.55  0.18    0.06  0.16 -0.06    0.31 -0.15 -0.06
       7   H                -0.08  0.02 -0.06   -0.11  0.10  0.08    0.09 -0.02  0.04
       8   H                 0.04  0.02 -0.02    0.01 -0.06  0.13   -0.16 -0.07  0.02
       9   H                 0.02  0.04  0.01   -0.42  0.07 -0.15   -0.17 -0.11 -0.06
Mode                                12                  13                  14
Irrep
Freq [cm^-1]                     1307.8264           1383.4400           1441.2221
Reduced mass [au]                   1.3627              1.2840              1.2897
Force const [Dyne/A]                1.3733              1.4479              1.5784
Char temp [K]                    1881.6711           1990.4621           2073.5978
Normal mode                   x     y     z       x     y     z       x     y     z
       0   O                 0.01  0.05 -0.03   -0.00 -0.02 -0.00    0.00  0.02  0.01
       1   C                -0.04  0.03  0.06    0.05 -0.01 -0.03   -0.10  0.01 -0.01
       2   C                 0.07 -0.04 -0.05   -0.02  0.01  0.01    0.02 -0.01  0.00
       3   C                 0.01 -0.01  0.03    0.10  0.01  0.08    0.08 -0.01 -0.01
       4   H                -0.75 -0.20  0.05   -0.19  0.01 -0.04    0.28  0.01 -0.01
       5   H                -0.04 -0.24 -0.02   -0.02  0.13  0.08    0.11 -0.20 -0.22
       6   H                 0.09 -0.15 -0.02   -0.09  0.13 -0.03    0.16 -0.23  0.07
       7   H                -0.05  0.02  0.01   -0.31  0.13 -0.40   -0.31  0.34  0.22
       8   H                -0.00  0.00 -0.02   -0.32 -0.12 -0.29   -0.35 -0.30  0.11
       9   H                 0.08  0.05  0.04   -0.44 -0.06  0.00    0.07  0.08 -0.00
Mode                                15                  16                  17
Irrep
Freq [cm^-1]                     1457.1368           1473.2169           1546.6908
Reduced mass [au]                   1.0643              1.0967              2.1225
Force const [Dyne/A]                1.3314              1.4024              2.9917
Char temp [K]                    2096.4954           2119.6312           2225.3437
Normal mode                   x     y     z       x     y     z       x     y     z
       0   O                 0.00 -0.01 -0.00   -0.00  0.01  0.00    0.02  0.04 -0.01
       1   C                 0.04 -0.03 -0.01   -0.07  0.00  0.01   -0.15  0.01  0.03
       2   C                -0.00 -0.01  0.00   -0.00  0.01  0.01    0.09 -0.09 -0.04
       3   C                -0.01 -0.04 -0.01    0.02 -0.02  0.04    0.04 -0.00  0.01
       4   H                -0.09  0.05 -0.01    0.19 -0.00  0.02    0.23  0.00  0.05
       5   H                -0.05  0.15  0.15    0.08 -0.23 -0.25   -0.03  0.23  0.33
       6   H                -0.13  0.15 -0.05    0.24 -0.24  0.08   -0.32  0.23 -0.14
       7   H                 0.03  0.10  0.48    0.24 -0.22 -0.12    0.06 -0.04 -0.05
       8   H                -0.18 -0.01 -0.40    0.21  0.23 -0.44    0.08  0.03 -0.01
       9   H                 0.10  0.62 -0.00   -0.39  0.27 -0.02   -0.14 -0.01 -0.01
Mode                                18                  19                  20
Irrep
Freq [cm^-1]                     3063.5086           3095.1730           3114.1841
Reduced mass [au]                   1.0371              1.0526              1.0906
Force const [Dyne/A]                5.7348              5.9415              6.2315
Char temp [K]                    4407.7068           4453.2649           4480.6175
Normal mode                   x     y     z       x     y     z       x     y     z
       0   O                -0.00  0.00  0.00   -0.00  0.00  0.00   -0.00  0.00 -0.00
       1   C                -0.00  0.00  0.00    0.01  0.00  0.01   -0.00  0.00  0.08
       2   C                 0.00 -0.00 -0.00   -0.04  0.04  0.02    0.01 -0.01 -0.01
       3   C                 0.05 -0.00  0.02    0.00 -0.00 -0.00    0.00 -0.00 -0.02
       4   H                 0.00  0.00 -0.05    0.01  0.00 -0.19    0.02 -0.00 -0.92
       5   H                -0.00  0.00 -0.00    0.47 -0.25  0.39   -0.07  0.03 -0.05
       6   H                 0.00  0.00  0.01   -0.06 -0.25 -0.64    0.02  0.07  0.16
       7   H                -0.33 -0.46  0.16    0.00  0.00 -0.00   -0.01 -0.02  0.01
       8   H                -0.28  0.49  0.15   -0.01  0.01  0.00   -0.01  0.03  0.01
       9   H                 0.07 -0.01 -0.51   -0.00  0.00  0.01   -0.02  0.00  0.16
Mode                                21                  22                  23
Irrep
Freq [cm^-1]                     3152.9443           3167.9183           3190.8425
Reduced mass [au]                   1.1032              1.1042              1.1214
Force const [Dyne/A]                6.4615              6.5291              6.7272
Char temp [K]                    4536.3849           4557.9292           4590.9120
Normal mode                   x     y     z       x     y     z       x     y     z
       0   O                -0.00 -0.00  0.00    0.00  0.00 -0.00    0.00  0.00  0.00
       1   C                -0.00  0.00  0.00   -0.00  0.00  0.01    0.00 -0.00 -0.01
       2   C                 0.00  0.00  0.00   -0.00 -0.00 -0.00   -0.05  0.00 -0.08
       3   C                 0.00  0.09  0.01   -0.04 -0.01  0.08    0.00 -0.00 -0.00
       4   H                 0.00 -0.00 -0.02    0.00 -0.00 -0.15   -0.01  0.01  0.06
       5   H                 0.01 -0.00  0.00    0.01 -0.01  0.01    0.50 -0.26  0.39
       6   H                -0.00 -0.00 -0.01    0.01  0.01  0.03    0.04  0.24  0.59
       7   H                -0.36 -0.50  0.17    0.23  0.32 -0.10   -0.01 -0.01  0.00
       8   H                 0.35 -0.58 -0.18    0.14 -0.25 -0.06   -0.00  0.01  0.00
       9   H                 0.01  0.01 -0.07    0.09 -0.01 -0.78   -0.00 -0.00  0.02
